Cs  I Pb 
 1.0000000000000000
    12.5787999999999993    0.0000000000000000    0.0000000000000000
     0.0000000000000000    6.2893999999999997    0.0000000000000000
     0.0000000000000000    0.0000000000000000   12.5787999999999993
 Cs  I   Pb 
   4  12   4
Direct
  0.2499999999999999  0.4999999999999999  0.2500000000000000
  0.2499999999999999  0.4999999999999999  0.7499999999999999
  0.7499999999999999  0.4999999999999999  0.2500000000000000
  0.7499999999999999  0.4999999999999999  0.7499999999999999
  0.0000000000000000  0.0000000000000000  0.2500000000000000
  0.0000000000000000  0.4999999999999999  0.0000000000000000
  0.2499999999999999  0.0000000000000000  0.0000000000000000
  0.0000000000000000  0.0000000000000000  0.7499999999999999
  0.0000000000000000  0.4999999999999999  0.4999999999999999
  0.2499999999999999  0.0000000000000000  0.4999999999999999
  0.4999999999999999  0.0000000000000000  0.2500000000000000
  0.4999999999999999  0.4999999999999999  0.0000000000000000
  0.7499999999999999  0.0000000000000000  0.0000000000000000
  0.4999999999999999  0.0000000000000000  0.7499999999999999
  0.4999999999999999  0.4999999999999999  0.4999999999999999
  0.7499999999999999  0.0000000000000000  0.4999999999999999
  0.0000000000000000  0.0000000000000000  0.0000000000000000
  0.0000000000000000  0.0000000000000000  0.4999999999999999
  0.4999999999999999  0.0000000000000000  0.0000000000000000
  0.4999999999999999  0.0000000000000000  0.4999999999999999
