Cs I  Pb
 1.0000000000000000
    12.5575407122991045    0.0000000037940257   -0.0000000037220488
     0.0000000037940796   12.5575407426489054   -0.0000000184198236
    -0.0000000037212930   -0.0000000184195308   12.5575407933431986
 Cs  I   Pb 
   8  24   8
Cartesian
  3.1393854224945912  3.1393853266003293  3.1393853305768173
  3.1393849553039384  3.1393851161400121  9.4181559934275256
  3.1393849682225019  9.4181560692125394  3.1393848879085162
  3.1393851712354319  9.4181559114589994  9.4181559134087802
  9.4181557319184126  3.1393849175211450  3.1393852994195384
  9.4181560205864958  3.1393852706565561  9.4181559308399887
  9.4181557527565847  9.4181559364428207  3.1393855828263333
  9.4181554234464464  9.4181555272933561  9.4181557664207780
  0.0000006818434489  0.0000004605963911  3.1393886038157315
  0.0000005269362126  3.1393886272681715  0.0000004640744368
  3.1393886527793646  0.0000004399912151  0.0000004619278714
  0.0000006886660203  0.0000005496923311  9.4181478117968123
  0.0000001099543076  3.1393887530486326  6.2787707031439099
  3.1393893001116262  0.0000000707747857  6.2787706304721906
 -0.0000000009588037  6.2787706227672526  3.1393888866789244
  0.0000005033149528  9.4181479659429019  0.0000006102395219
  3.1393888318294092  6.2787707209718553  0.0000002041418081
  0.0000003537128904  6.2787704790726755  9.4181473521469083
  0.0000001538588420  9.4181471732306754  6.2787703470238467
  3.1393889176356353  6.2787706375734240  6.2787705585651423
  6.2787705816337818  0.0000001127721054  3.1393891293567546
  6.2787706120649309  3.1393888530936658  0.0000002048256344
  9.4181475926499836  0.0000008699950736  0.0000005641033415
  6.2787703600664431  0.0000002804226389  9.4181473068308570
  6.2787704920623506  3.1393889170859124  6.2787705852123370
  9.4181472600283289  0.0000002655550325  6.2787703588105384
  6.2787707964081036  6.2787707485116382  3.1393888070648313
  6.2787703609117580  9.4181476855562138  0.0000003211149659
  9.4181476645647262  6.2787702069664997 -0.0000000350174070
  6.2787705799944211  6.2787704603238490  9.4181474742646252
  6.2787704254779477  9.4181474532506471  6.2787704199796890
  9.4181474602689210  6.2787705808162544  6.2787704232547128
  0.0000014809814012  0.0000011645784343  0.0000014354276694
  0.0000012692246883  0.0000015665368005  6.2787723604645995
  0.0000010307896881  6.2787720445119870  0.0000012967911168
  0.0000013653927179  6.2787721201454794  6.2787720984981439
  6.2787721308402489  0.0000012208063643  0.0000016478105773
  6.2787720265717883  0.0000014163430118  6.2787718203749661
  6.2787722202350302  6.2787720831864862  0.0000014958623163
  6.2787717395376728  6.2787716498193582  6.2787716849118196
