Cs I  Pb
 1.0000000000000000
    12.5787999999999993    0.0000000000000000    0.0000000000000000
     0.0000000000000000   12.5787999999999993    0.0000000000000000
     0.0000000000000000    0.0000000000000000   12.5787999999999993
 Cs  I   Pb 
   8  24   8
Cartesian
  3.1446999999999994  3.1446999999999994  3.1446999999999998
  3.1446999999999994  3.1446999999999994  9.4340999999999990
  3.1446999999999994  9.4340999999999990  3.1446999999999998
  3.1446999999999994  9.4340999999999990  9.4340999999999990
  9.4340999999999990  3.1446999999999994  3.1446999999999998
  9.4340999999999990  3.1446999999999994  9.4340999999999990
  9.4340999999999990  9.4340999999999990  3.1446999999999998
  9.4340999999999990  9.4340999999999990  9.4340999999999990
  0.0000000000000000  0.0000000000000000  3.1446999999999998
  0.0000000000000000  3.1446999999999994  0.0000000000000000
  3.1446999999999994  0.0000000000000000  0.0000000000000000
  0.0000000000000000  0.0000000000000000  9.4340999999999990
  0.0000000000000000  3.1446999999999994  6.2893999999999997
  3.1446999999999994  0.0000000000000000  6.2893999999999997
  0.0000000000000000  6.2893999999999997  3.1446999999999998
  0.0000000000000000  9.4340999999999990  0.0000000000000000
  3.1446999999999994  6.2893999999999997  0.0000000000000000
  0.0000000000000000  6.2893999999999997  9.4340999999999990
  0.0000000000000000  9.4340999999999990  6.2893999999999997
  3.1446999999999994  6.2893999999999997  6.2893999999999997
  6.2893999999999997  0.0000000000000000  3.1446999999999998
  6.2893999999999997  3.1446999999999994  0.0000000000000000
  9.4340999999999990  0.0000000000000000  0.0000000000000000
  6.2893999999999997  0.0000000000000000  9.4340999999999990
  6.2893999999999997  3.1446999999999994  6.2893999999999997
  9.4340999999999990  0.0000000000000000  6.2893999999999997
  6.2893999999999997  6.2893999999999997  3.1446999999999998
  6.2893999999999997  9.4340999999999990  0.0000000000000000
  9.4340999999999990  6.2893999999999997  0.0000000000000000
  6.2893999999999997  6.2893999999999997  9.4340999999999990
  6.2893999999999997  9.4340999999999990  6.2893999999999997
  9.4340999999999990  6.2893999999999997  6.2893999999999997
  0.0000000000000000  0.0000000000000000  0.0000000000000000
  0.0000000000000000  0.0000000000000000  6.2893999999999997
  0.0000000000000000  6.2893999999999997  0.0000000000000000
  0.0000000000000000  6.2893999999999997  6.2893999999999997
  6.2893999999999997  0.0000000000000000  0.0000000000000000
  6.2893999999999997  0.0000000000000000  6.2893999999999997
  6.2893999999999997  6.2893999999999997  0.0000000000000000
  6.2893999999999997  6.2893999999999997  6.2893999999999997
