Cs I  Pb
 1.0000000000000000
     9.0533736902389439   -0.0000042783802271    0.0000026483905631
    -0.0000084205985339   16.6608191977141082   -0.0000290479138015
     0.0000038224988492   -0.0000214941347904   12.4945978460612217
 Cs  I   Pb 
   8  24   8
Cartesian
  8.2594231073212558  8.6375172048838937  3.1238159072399827
  3.7325881097003450  3.8579133283392046  3.1234264749796536
  0.7942097509411368 -0.3073064164726419  9.3711252066900936
  5.3205766545367466  4.4721657346789803  9.3707399369727007
  8.2591463721990230 16.9678964336780851  3.1239304434248867
  3.7326534702828478 12.1886900402852252  3.1233064840355751
  0.7938080308020566  8.0232987474395774  9.3710899313898679
  5.3207654158717483 12.8029682232662463  9.3708344871612645
  4.5419511722417090  7.6590136998487877  3.1243446216217179
  0.0152462730449044  4.8367987831979598  3.1228458423376257
  4.5113456468081896  0.6718043765186551  9.3707783226181789
  9.0380490136671021  3.4937126166667158  9.3709315306710010
  7.3253112860899012  6.8234868964744200 12.0127431148135528
  2.7991160823352548  5.6724688166216719  6.7292016464557811
  1.7274190989927181  1.5073673105338958  5.7654499796963110
  6.2544083032307913  2.6582925241314848  0.4819339783083775
  1.7265387199164568  1.5079370585672185  0.4800699471073416
  6.2530956555553496  2.6573379965839932  5.7671784692781722
  7.3272692876305516  6.8224521859608824  6.7275575086600492
  2.8004105412341174  5.6731856382629955 12.0143954882192734
  4.5420263842199580 15.9891472893908588  3.1244476506343473
  0.0153532220663180 13.1670736425924932  3.1228337595337576
  4.5114073143723532  9.0018242023591579  9.3711595524572022
  9.0380937810767570 11.8238045808665859  9.3710115189671246
  7.3258051542076368 15.1533383064048923 12.0128360878935165
  2.7989364669708112 14.0028688870212772  6.7290269971663976
  1.7276379581978920  9.8373624508286444  5.7653180998312141
  6.2540064175555994 10.9882104199017903  0.4819314244787480
  1.7262696406255087  9.8381638508746008  0.4802368253338778
  6.2530345361839146 10.9875323203619235  5.7671493573560815
  7.3273456382169018 15.1525096313718493  6.7273486658719790
  2.8005275448222409 14.0037912634285870 12.0145002727791113
  4.5266122028703073 -0.0002638254884944  0.0014430753211770
  0.0003963761366692  4.1646923688203588  6.2456300205344499
  4.5263858100954346 -0.0004715214052963  6.2488945708151737
 -0.0001661525702512  4.1656235050894956 -0.0014343842890479
  4.5275587850247314  8.3304330654978358  0.0014625164669186
  0.0000957070633722 12.4957999561760360  6.2457677091970067
  4.5262718268242974  8.3301189871080155  6.2486311136990684
 -0.0002947079507319 12.4965399867713405 -0.0016363743727410
