8640
Lattice="62.6052 0.0 0.0 0.0 86.229 0.0 0.0 0.0 71.044" Properties=species:S:1:pos:R:3 pbc="T T T"
Cs       4.33687089       1.19762500      11.91585490
Cs       0.88022911       3.59287500       3.03535490
Cs       6.09732911       3.59287500       5.84514510
Cs       9.55397089       1.19762500      14.72564510
Cs       4.33687089       1.19762500      29.67685490
Cs       0.88022911       3.59287500      20.79635490
Cs       6.09732911       3.59287500      23.60614510
Cs       9.55397089       1.19762500      32.48664510
Cs       4.33687089       1.19762500      47.43785490
Cs       0.88022911       3.59287500      38.55735490
Cs       6.09732911       3.59287500      41.36714510
Cs       9.55397089       1.19762500      50.24764510
Cs       4.33687089       1.19762500      65.19885490
Cs       0.88022911       3.59287500      56.31835490
Cs       6.09732911       3.59287500      59.12814510
Cs       9.55397089       1.19762500      68.00864510
Cs       4.33687089       5.98812500      11.91585490
Cs       0.88022911       8.38337500       3.03535490
Cs       6.09732911       8.38337500       5.84514510
Cs       9.55397089       5.98812500      14.72564510
Cs       4.33687089       5.98812500      29.67685490
Cs       0.88022911       8.38337500      20.79635490
Cs       6.09732911       8.38337500      23.60614510
Cs       9.55397089       5.98812500      32.48664510
Cs       4.33687089       5.98812500      47.43785490
Cs       0.88022911       8.38337500      38.55735490
Cs       6.09732911       8.38337500      41.36714510
Cs       9.55397089       5.98812500      50.24764510
Cs       4.33687089       5.98812500      65.19885490
Cs       0.88022911       8.38337500      56.31835490
Cs       6.09732911       8.38337500      59.12814510
Cs       9.55397089       5.98812500      68.00864510
Cs       4.33687089      10.77862500      11.91585490
Cs       0.88022911      13.17387500       3.03535490
Cs       6.09732911      13.17387500       5.84514510
Cs       9.55397089      10.77862500      14.72564510
Cs       4.33687089      10.77862500      29.67685490
Cs       0.88022911      13.17387500      20.79635490
Cs       6.09732911      13.17387500      23.60614510
Cs       9.55397089      10.77862500      32.48664510
Cs       4.33687089      10.77862500      47.43785490
Cs       0.88022911      13.17387500      38.55735490
Cs       6.09732911      13.17387500      41.36714510
Cs       9.55397089      10.77862500      50.24764510
Cs       4.33687089      10.77862500      65.19885490
Cs       0.88022911      13.17387500      56.31835490
Cs       6.09732911      13.17387500      59.12814510
Cs       9.55397089      10.77862500      68.00864510
Cs       4.33687089      15.56912500      11.91585490
Cs       0.88022911      17.96437500       3.03535490
Cs       6.09732911      17.96437500       5.84514510
Cs       9.55397089      15.56912500      14.72564510
Cs       4.33687089      15.56912500      29.67685490
Cs       0.88022911      17.96437500      20.79635490
Cs       6.09732911      17.96437500      23.60614510
Cs       9.55397089      15.56912500      32.48664510
Cs       4.33687089      15.56912500      47.43785490
Cs       0.88022911      17.96437500      38.55735490
Cs       6.09732911      17.96437500      41.36714510
Cs       9.55397089      15.56912500      50.24764510
Cs       4.33687089      15.56912500      65.19885490
Cs       0.88022911      17.96437500      56.31835490
Cs       6.09732911      17.96437500      59.12814510
Cs       9.55397089      15.56912500      68.00864510
Cs       4.33687089      20.35962500      11.91585490
Cs       0.88022911      22.75487500       3.03535490
Cs       6.09732911      22.75487500       5.84514510
Cs       9.55397089      20.35962500      14.72564510
Cs       4.33687089      20.35962500      29.67685490
Cs       0.88022911      22.75487500      20.79635490
Cs       6.09732911      22.75487500      23.60614510
Cs       9.55397089      20.35962500      32.48664510
Cs       4.33687089      20.35962500      47.43785490
Cs       0.88022911      22.75487500      38.55735490
Cs       6.09732911      22.75487500      41.36714510
Cs       9.55397089      20.35962500      50.24764510
Cs       4.33687089      20.35962500      65.19885490
Cs       0.88022911      22.75487500      56.31835490
Cs       6.09732911      22.75487500      59.12814510
Cs       9.55397089      20.35962500      68.00864510
Cs       4.33687089      25.15012500      11.91585490
Cs       0.88022911      27.54537500       3.03535490
Cs       6.09732911      27.54537500       5.84514510
Cs       9.55397089      25.15012500      14.72564510
Cs       4.33687089      25.15012500      29.67685490
Cs       0.88022911      27.54537500      20.79635490
Cs       6.09732911      27.54537500      23.60614510
Cs       9.55397089      25.15012500      32.48664510
Cs       4.33687089      25.15012500      47.43785490
Cs       0.88022911      27.54537500      38.55735490
Cs       6.09732911      27.54537500      41.36714510
Cs       9.55397089      25.15012500      50.24764510
Cs       4.33687089      25.15012500      65.19885490
Cs       0.88022911      27.54537500      56.31835490
Cs       6.09732911      27.54537500      59.12814510
Cs       9.55397089      25.15012500      68.00864510
Cs       4.33687089      29.94062500      11.91585490
Cs       0.88022911      32.33587500       3.03535490
Cs       6.09732911      32.33587500       5.84514510
Cs       9.55397089      29.94062500      14.72564510
Cs       4.33687089      29.94062500      29.67685490
Cs       0.88022911      32.33587500      20.79635490
Cs       6.09732911      32.33587500      23.60614510
Cs       9.55397089      29.94062500      32.48664510
Cs       4.33687089      29.94062500      47.43785490
Cs       0.88022911      32.33587500      38.55735490
Cs       6.09732911      32.33587500      41.36714510
Cs       9.55397089      29.94062500      50.24764510
Cs       4.33687089      29.94062500      65.19885490
Cs       0.88022911      32.33587500      56.31835490
Cs       6.09732911      32.33587500      59.12814510
Cs       9.55397089      29.94062500      68.00864510
Cs       4.33687089      34.73112500      11.91585490
Cs       0.88022911      37.12637500       3.03535490
Cs       6.09732911      37.12637500       5.84514510
Cs       9.55397089      34.73112500      14.72564510
Cs       4.33687089      34.73112500      29.67685490
Cs       0.88022911      37.12637500      20.79635490
Cs       6.09732911      37.12637500      23.60614510
Cs       9.55397089      34.73112500      32.48664510
Cs       4.33687089      34.73112500      47.43785490
Cs       0.88022911      37.12637500      38.55735490
Cs       6.09732911      37.12637500      41.36714510
Cs       9.55397089      34.73112500      50.24764510
Cs       4.33687089      34.73112500      65.19885490
Cs       0.88022911      37.12637500      56.31835490
Cs       6.09732911      37.12637500      59.12814510
Cs       9.55397089      34.73112500      68.00864510
Cs       4.33687089      39.52162500      11.91585490
Cs       0.88022911      41.91687500       3.03535490
Cs       6.09732911      41.91687500       5.84514510
Cs       9.55397089      39.52162500      14.72564510
Cs       4.33687089      39.52162500      29.67685490
Cs       0.88022911      41.91687500      20.79635490
Cs       6.09732911      41.91687500      23.60614510
Cs       9.55397089      39.52162500      32.48664510
Cs       4.33687089      39.52162500      47.43785490
Cs       0.88022911      41.91687500      38.55735490
Cs       6.09732911      41.91687500      41.36714510
Cs       9.55397089      39.52162500      50.24764510
Cs       4.33687089      39.52162500      65.19885490
Cs       0.88022911      41.91687500      56.31835490
Cs       6.09732911      41.91687500      59.12814510
Cs       9.55397089      39.52162500      68.00864510
Cs       4.33687089      44.31212500      11.91585490
Cs       0.88022911      46.70737500       3.03535490
Cs       6.09732911      46.70737500       5.84514510
Cs       9.55397089      44.31212500      14.72564510
Cs       4.33687089      44.31212500      29.67685490
Cs       0.88022911      46.70737500      20.79635490
Cs       6.09732911      46.70737500      23.60614510
Cs       9.55397089      44.31212500      32.48664510
Cs       4.33687089      44.31212500      47.43785490
Cs       0.88022911      46.70737500      38.55735490
Cs       6.09732911      46.70737500      41.36714510
Cs       9.55397089      44.31212500      50.24764510
Cs       4.33687089      44.31212500      65.19885490
Cs       0.88022911      46.70737500      56.31835490
Cs       6.09732911      46.70737500      59.12814510
Cs       9.55397089      44.31212500      68.00864510
Cs       4.33687089      49.10262500      11.91585490
Cs       0.88022911      51.49787500       3.03535490
Cs       6.09732911      51.49787500       5.84514510
Cs       9.55397089      49.10262500      14.72564510
Cs       4.33687089      49.10262500      29.67685490
Cs       0.88022911      51.49787500      20.79635490
Cs       6.09732911      51.49787500      23.60614510
Cs       9.55397089      49.10262500      32.48664510
Cs       4.33687089      49.10262500      47.43785490
Cs       0.88022911      51.49787500      38.55735490
Cs       6.09732911      51.49787500      41.36714510
Cs       9.55397089      49.10262500      50.24764510
Cs       4.33687089      49.10262500      65.19885490
Cs       0.88022911      51.49787500      56.31835490
Cs       6.09732911      51.49787500      59.12814510
Cs       9.55397089      49.10262500      68.00864510
Cs       4.33687089      53.89312500      11.91585490
Cs       0.88022911      56.28837500       3.03535490
Cs       6.09732911      56.28837500       5.84514510
Cs       9.55397089      53.89312500      14.72564510
Cs       4.33687089      53.89312500      29.67685490
Cs       0.88022911      56.28837500      20.79635490
Cs       6.09732911      56.28837500      23.60614510
Cs       9.55397089      53.89312500      32.48664510
Cs       4.33687089      53.89312500      47.43785490
Cs       0.88022911      56.28837500      38.55735490
Cs       6.09732911      56.28837500      41.36714510
Cs       9.55397089      53.89312500      50.24764510
Cs       4.33687089      53.89312500      65.19885490
Cs       0.88022911      56.28837500      56.31835490
Cs       6.09732911      56.28837500      59.12814510
Cs       9.55397089      53.89312500      68.00864510
Cs       4.33687089      58.68362500      11.91585490
Cs       0.88022911      61.07887500       3.03535490
Cs       6.09732911      61.07887500       5.84514510
Cs       9.55397089      58.68362500      14.72564510
Cs       4.33687089      58.68362500      29.67685490
Cs       0.88022911      61.07887500      20.79635490
Cs       6.09732911      61.07887500      23.60614510
Cs       9.55397089      58.68362500      32.48664510
Cs       4.33687089      58.68362500      47.43785490
Cs       0.88022911      61.07887500      38.55735490
Cs       6.09732911      61.07887500      41.36714510
Cs       9.55397089      58.68362500      50.24764510
Cs       4.33687089      58.68362500      65.19885490
Cs       0.88022911      61.07887500      56.31835490
Cs       6.09732911      61.07887500      59.12814510
Cs       9.55397089      58.68362500      68.00864510
Cs       4.33687089      63.47412500      11.91585490
Cs       0.88022911      65.86937500       3.03535490
Cs       6.09732911      65.86937500       5.84514510
Cs       9.55397089      63.47412500      14.72564510
Cs       4.33687089      63.47412500      29.67685490
Cs       0.88022911      65.86937500      20.79635490
Cs       6.09732911      65.86937500      23.60614510
Cs       9.55397089      63.47412500      32.48664510
Cs       4.33687089      63.47412500      47.43785490
Cs       0.88022911      65.86937500      38.55735490
Cs       6.09732911      65.86937500      41.36714510
Cs       9.55397089      63.47412500      50.24764510
Cs       4.33687089      63.47412500      65.19885490
Cs       0.88022911      65.86937500      56.31835490
Cs       6.09732911      65.86937500      59.12814510
Cs       9.55397089      63.47412500      68.00864510
Cs       4.33687089      68.26462500      11.91585490
Cs       0.88022911      70.65987500       3.03535490
Cs       6.09732911      70.65987500       5.84514510
Cs       9.55397089      68.26462500      14.72564510
Cs       4.33687089      68.26462500      29.67685490
Cs       0.88022911      70.65987500      20.79635490
Cs       6.09732911      70.65987500      23.60614510
Cs       9.55397089      68.26462500      32.48664510
Cs       4.33687089      68.26462500      47.43785490
Cs       0.88022911      70.65987500      38.55735490
Cs       6.09732911      70.65987500      41.36714510
Cs       9.55397089      68.26462500      50.24764510
Cs       4.33687089      68.26462500      65.19885490
Cs       0.88022911      70.65987500      56.31835490
Cs       6.09732911      70.65987500      59.12814510
Cs       9.55397089      68.26462500      68.00864510
Cs       4.33687089      73.05512500      11.91585490
Cs       0.88022911      75.45037500       3.03535490
Cs       6.09732911      75.45037500       5.84514510
Cs       9.55397089      73.05512500      14.72564510
Cs       4.33687089      73.05512500      29.67685490
Cs       0.88022911      75.45037500      20.79635490
Cs       6.09732911      75.45037500      23.60614510
Cs       9.55397089      73.05512500      32.48664510
Cs       4.33687089      73.05512500      47.43785490
Cs       0.88022911      75.45037500      38.55735490
Cs       6.09732911      75.45037500      41.36714510
Cs       9.55397089      73.05512500      50.24764510
Cs       4.33687089      73.05512500      65.19885490
Cs       0.88022911      75.45037500      56.31835490
Cs       6.09732911      75.45037500      59.12814510
Cs       9.55397089      73.05512500      68.00864510
Cs       4.33687089      77.84562500      11.91585490
Cs       0.88022911      80.24087500       3.03535490
Cs       6.09732911      80.24087500       5.84514510
Cs       9.55397089      77.84562500      14.72564510
Cs       4.33687089      77.84562500      29.67685490
Cs       0.88022911      80.24087500      20.79635490
Cs       6.09732911      80.24087500      23.60614510
Cs       9.55397089      77.84562500      32.48664510
Cs       4.33687089      77.84562500      47.43785490
Cs       0.88022911      80.24087500      38.55735490
Cs       6.09732911      80.24087500      41.36714510
Cs       9.55397089      77.84562500      50.24764510
Cs       4.33687089      77.84562500      65.19885490
Cs       0.88022911      80.24087500      56.31835490
Cs       6.09732911      80.24087500      59.12814510
Cs       9.55397089      77.84562500      68.00864510
Cs       4.33687089      82.63612500      11.91585490
Cs       0.88022911      85.03137500       3.03535490
Cs       6.09732911      85.03137500       5.84514510
Cs       9.55397089      82.63612500      14.72564510
Cs       4.33687089      82.63612500      29.67685490
Cs       0.88022911      85.03137500      20.79635490
Cs       6.09732911      85.03137500      23.60614510
Cs       9.55397089      82.63612500      32.48664510
Cs       4.33687089      82.63612500      47.43785490
Cs       0.88022911      85.03137500      38.55735490
Cs       6.09732911      85.03137500      41.36714510
Cs       9.55397089      82.63612500      50.24764510
Cs       4.33687089      82.63612500      65.19885490
Cs       0.88022911      85.03137500      56.31835490
Cs       6.09732911      85.03137500      59.12814510
Cs       9.55397089      82.63612500      68.00864510
Cs      14.77107089       1.19762500      11.91585490
Cs      11.31442911       3.59287500       3.03535490
Cs      16.53152911       3.59287500       5.84514510
Cs      19.98817089       1.19762500      14.72564510
Cs      14.77107089       1.19762500      29.67685490
Cs      11.31442911       3.59287500      20.79635490
Cs      16.53152911       3.59287500      23.60614510
Cs      19.98817089       1.19762500      32.48664510
Cs      14.77107089       1.19762500      47.43785490
Cs      11.31442911       3.59287500      38.55735490
Cs      16.53152911       3.59287500      41.36714510
Cs      19.98817089       1.19762500      50.24764510
Cs      14.77107089       1.19762500      65.19885490
Cs      11.31442911       3.59287500      56.31835490
Cs      16.53152911       3.59287500      59.12814510
Cs      19.98817089       1.19762500      68.00864510
Cs      14.77107089       5.98812500      11.91585490
Cs      11.31442911       8.38337500       3.03535490
Cs      16.53152911       8.38337500       5.84514510
Cs      19.98817089       5.98812500      14.72564510
Cs      14.77107089       5.98812500      29.67685490
Cs      11.31442911       8.38337500      20.79635490
Cs      16.53152911       8.38337500      23.60614510
Cs      19.98817089       5.98812500      32.48664510
Cs      14.77107089       5.98812500      47.43785490
Cs      11.31442911       8.38337500      38.55735490
Cs      16.53152911       8.38337500      41.36714510
Cs      19.98817089       5.98812500      50.24764510
Cs      14.77107089       5.98812500      65.19885490
Cs      11.31442911       8.38337500      56.31835490
Cs      16.53152911       8.38337500      59.12814510
Cs      19.98817089       5.98812500      68.00864510
Cs      14.77107089      10.77862500      11.91585490
Cs      11.31442911      13.17387500       3.03535490
Cs      16.53152911      13.17387500       5.84514510
Cs      19.98817089      10.77862500      14.72564510
Cs      14.77107089      10.77862500      29.67685490
Cs      11.31442911      13.17387500      20.79635490
Cs      16.53152911      13.17387500      23.60614510
Cs      19.98817089      10.77862500      32.48664510
Cs      14.77107089      10.77862500      47.43785490
Cs      11.31442911      13.17387500      38.55735490
Cs      16.53152911      13.17387500      41.36714510
Cs      19.98817089      10.77862500      50.24764510
Cs      14.77107089      10.77862500      65.19885490
Cs      11.31442911      13.17387500      56.31835490
Cs      16.53152911      13.17387500      59.12814510
Cs      19.98817089      10.77862500      68.00864510
Cs      14.77107089      15.56912500      11.91585490
Cs      11.31442911      17.96437500       3.03535490
Cs      16.53152911      17.96437500       5.84514510
Cs      19.98817089      15.56912500      14.72564510
Cs      14.77107089      15.56912500      29.67685490
Cs      11.31442911      17.96437500      20.79635490
Cs      16.53152911      17.96437500      23.60614510
Cs      19.98817089      15.56912500      32.48664510
Cs      14.77107089      15.56912500      47.43785490
Cs      11.31442911      17.96437500      38.55735490
Cs      16.53152911      17.96437500      41.36714510
Cs      19.98817089      15.56912500      50.24764510
Cs      14.77107089      15.56912500      65.19885490
Cs      11.31442911      17.96437500      56.31835490
Cs      16.53152911      17.96437500      59.12814510
Cs      19.98817089      15.56912500      68.00864510
Cs      14.77107089      20.35962500      11.91585490
Cs      11.31442911      22.75487500       3.03535490
Cs      16.53152911      22.75487500       5.84514510
Cs      19.98817089      20.35962500      14.72564510
Cs      14.77107089      20.35962500      29.67685490
Cs      11.31442911      22.75487500      20.79635490
Cs      16.53152911      22.75487500      23.60614510
Cs      19.98817089      20.35962500      32.48664510
Cs      14.77107089      20.35962500      47.43785490
Cs      11.31442911      22.75487500      38.55735490
Cs      16.53152911      22.75487500      41.36714510
Cs      19.98817089      20.35962500      50.24764510
Cs      14.77107089      20.35962500      65.19885490
Cs      11.31442911      22.75487500      56.31835490
Cs      16.53152911      22.75487500      59.12814510
Cs      19.98817089      20.35962500      68.00864510
Cs      14.77107089      25.15012500      11.91585490
Cs      11.31442911      27.54537500       3.03535490
Cs      16.53152911      27.54537500       5.84514510
Cs      19.98817089      25.15012500      14.72564510
Cs      14.77107089      25.15012500      29.67685490
Cs      11.31442911      27.54537500      20.79635490
Cs      16.53152911      27.54537500      23.60614510
Cs      19.98817089      25.15012500      32.48664510
Cs      14.77107089      25.15012500      47.43785490
Cs      11.31442911      27.54537500      38.55735490
Cs      16.53152911      27.54537500      41.36714510
Cs      19.98817089      25.15012500      50.24764510
Cs      14.77107089      25.15012500      65.19885490
Cs      11.31442911      27.54537500      56.31835490
Cs      16.53152911      27.54537500      59.12814510
Cs      19.98817089      25.15012500      68.00864510
Cs      14.77107089      29.94062500      11.91585490
Cs      11.31442911      32.33587500       3.03535490
Cs      16.53152911      32.33587500       5.84514510
Cs      19.98817089      29.94062500      14.72564510
Cs      14.77107089      29.94062500      29.67685490
Cs      11.31442911      32.33587500      20.79635490
Cs      16.53152911      32.33587500      23.60614510
Cs      19.98817089      29.94062500      32.48664510
Cs      14.77107089      29.94062500      47.43785490
Cs      11.31442911      32.33587500      38.55735490
Cs      16.53152911      32.33587500      41.36714510
Cs      19.98817089      29.94062500      50.24764510
Cs      14.77107089      29.94062500      65.19885490
Cs      11.31442911      32.33587500      56.31835490
Cs      16.53152911      32.33587500      59.12814510
Cs      19.98817089      29.94062500      68.00864510
Cs      14.77107089      34.73112500      11.91585490
Cs      11.31442911      37.12637500       3.03535490
Cs      16.53152911      37.12637500       5.84514510
Cs      19.98817089      34.73112500      14.72564510
Cs      14.77107089      34.73112500      29.67685490
Cs      11.31442911      37.12637500      20.79635490
Cs      16.53152911      37.12637500      23.60614510
Cs      19.98817089      34.73112500      32.48664510
Cs      14.77107089      34.73112500      47.43785490
Cs      11.31442911      37.12637500      38.55735490
Cs      16.53152911      37.12637500      41.36714510
Cs      19.98817089      34.73112500      50.24764510
Cs      14.77107089      34.73112500      65.19885490
Cs      11.31442911      37.12637500      56.31835490
Cs      16.53152911      37.12637500      59.12814510
Cs      19.98817089      34.73112500      68.00864510
Cs      14.77107089      39.52162500      11.91585490
Cs      11.31442911      41.91687500       3.03535490
Cs      16.53152911      41.91687500       5.84514510
Cs      19.98817089      39.52162500      14.72564510
Cs      14.77107089      39.52162500      29.67685490
Cs      11.31442911      41.91687500      20.79635490
Cs      16.53152911      41.91687500      23.60614510
Cs      19.98817089      39.52162500      32.48664510
Cs      14.77107089      39.52162500      47.43785490
Cs      11.31442911      41.91687500      38.55735490
Cs      16.53152911      41.91687500      41.36714510
Cs      19.98817089      39.52162500      50.24764510
Cs      14.77107089      39.52162500      65.19885490
Cs      11.31442911      41.91687500      56.31835490
Cs      16.53152911      41.91687500      59.12814510
Cs      19.98817089      39.52162500      68.00864510
Cs      14.77107089      44.31212500      11.91585490
Cs      11.31442911      46.70737500       3.03535490
Cs      16.53152911      46.70737500       5.84514510
Cs      19.98817089      44.31212500      14.72564510
Cs      14.77107089      44.31212500      29.67685490
Cs      11.31442911      46.70737500      20.79635490
Cs      16.53152911      46.70737500      23.60614510
Cs      19.98817089      44.31212500      32.48664510
Cs      14.77107089      44.31212500      47.43785490
Cs      11.31442911      46.70737500      38.55735490
Cs      16.53152911      46.70737500      41.36714510
Cs      19.98817089      44.31212500      50.24764510
Cs      14.77107089      44.31212500      65.19885490
Cs      11.31442911      46.70737500      56.31835490
Cs      16.53152911      46.70737500      59.12814510
Cs      19.98817089      44.31212500      68.00864510
Cs      14.77107089      49.10262500      11.91585490
Cs      11.31442911      51.49787500       3.03535490
Cs      16.53152911      51.49787500       5.84514510
Cs      19.98817089      49.10262500      14.72564510
Cs      14.77107089      49.10262500      29.67685490
Cs      11.31442911      51.49787500      20.79635490
Cs      16.53152911      51.49787500      23.60614510
Cs      19.98817089      49.10262500      32.48664510
Cs      14.77107089      49.10262500      47.43785490
Cs      11.31442911      51.49787500      38.55735490
Cs      16.53152911      51.49787500      41.36714510
Cs      19.98817089      49.10262500      50.24764510
Cs      14.77107089      49.10262500      65.19885490
Cs      11.31442911      51.49787500      56.31835490
Cs      16.53152911      51.49787500      59.12814510
Cs      19.98817089      49.10262500      68.00864510
Cs      14.77107089      53.89312500      11.91585490
Cs      11.31442911      56.28837500       3.03535490
Cs      16.53152911      56.28837500       5.84514510
Cs      19.98817089      53.89312500      14.72564510
Cs      14.77107089      53.89312500      29.67685490
Cs      11.31442911      56.28837500      20.79635490
Cs      16.53152911      56.28837500      23.60614510
Cs      19.98817089      53.89312500      32.48664510
Cs      14.77107089      53.89312500      47.43785490
Cs      11.31442911      56.28837500      38.55735490
Cs      16.53152911      56.28837500      41.36714510
Cs      19.98817089      53.89312500      50.24764510
Cs      14.77107089      53.89312500      65.19885490
Cs      11.31442911      56.28837500      56.31835490
Cs      16.53152911      56.28837500      59.12814510
Cs      19.98817089      53.89312500      68.00864510
Cs      14.77107089      58.68362500      11.91585490
Cs      11.31442911      61.07887500       3.03535490
Cs      16.53152911      61.07887500       5.84514510
Cs      19.98817089      58.68362500      14.72564510
Cs      14.77107089      58.68362500      29.67685490
Cs      11.31442911      61.07887500      20.79635490
Cs      16.53152911      61.07887500      23.60614510
Cs      19.98817089      58.68362500      32.48664510
Cs      14.77107089      58.68362500      47.43785490
Cs      11.31442911      61.07887500      38.55735490
Cs      16.53152911      61.07887500      41.36714510
Cs      19.98817089      58.68362500      50.24764510
Cs      14.77107089      58.68362500      65.19885490
Cs      11.31442911      61.07887500      56.31835490
Cs      16.53152911      61.07887500      59.12814510
Cs      19.98817089      58.68362500      68.00864510
Cs      14.77107089      63.47412500      11.91585490
Cs      11.31442911      65.86937500       3.03535490
Cs      16.53152911      65.86937500       5.84514510
Cs      19.98817089      63.47412500      14.72564510
Cs      14.77107089      63.47412500      29.67685490
Cs      11.31442911      65.86937500      20.79635490
Cs      16.53152911      65.86937500      23.60614510
Cs      19.98817089      63.47412500      32.48664510
Cs      14.77107089      63.47412500      47.43785490
Cs      11.31442911      65.86937500      38.55735490
Cs      16.53152911      65.86937500      41.36714510
Cs      19.98817089      63.47412500      50.24764510
Cs      14.77107089      63.47412500      65.19885490
Cs      11.31442911      65.86937500      56.31835490
Cs      16.53152911      65.86937500      59.12814510
Cs      19.98817089      63.47412500      68.00864510
Cs      14.77107089      68.26462500      11.91585490
Cs      11.31442911      70.65987500       3.03535490
Cs      16.53152911      70.65987500       5.84514510
Cs      19.98817089      68.26462500      14.72564510
Cs      14.77107089      68.26462500      29.67685490
Cs      11.31442911      70.65987500      20.79635490
Cs      16.53152911      70.65987500      23.60614510
Cs      19.98817089      68.26462500      32.48664510
Cs      14.77107089      68.26462500      47.43785490
Cs      11.31442911      70.65987500      38.55735490
Cs      16.53152911      70.65987500      41.36714510
Cs      19.98817089      68.26462500      50.24764510
Cs      14.77107089      68.26462500      65.19885490
Cs      11.31442911      70.65987500      56.31835490
Cs      16.53152911      70.65987500      59.12814510
Cs      19.98817089      68.26462500      68.00864510
Cs      14.77107089      73.05512500      11.91585490
Cs      11.31442911      75.45037500       3.03535490
Cs      16.53152911      75.45037500       5.84514510
Cs      19.98817089      73.05512500      14.72564510
Cs      14.77107089      73.05512500      29.67685490
Cs      11.31442911      75.45037500      20.79635490
Cs      16.53152911      75.45037500      23.60614510
Cs      19.98817089      73.05512500      32.48664510
Cs      14.77107089      73.05512500      47.43785490
Cs      11.31442911      75.45037500      38.55735490
Cs      16.53152911      75.45037500      41.36714510
Cs      19.98817089      73.05512500      50.24764510
Cs      14.77107089      73.05512500      65.19885490
Cs      11.31442911      75.45037500      56.31835490
Cs      16.53152911      75.45037500      59.12814510
Cs      19.98817089      73.05512500      68.00864510
Cs      14.77107089      77.84562500      11.91585490
Cs      11.31442911      80.24087500       3.03535490
Cs      16.53152911      80.24087500       5.84514510
Cs      19.98817089      77.84562500      14.72564510
Cs      14.77107089      77.84562500      29.67685490
Cs      11.31442911      80.24087500      20.79635490
Cs      16.53152911      80.24087500      23.60614510
Cs      19.98817089      77.84562500      32.48664510
Cs      14.77107089      77.84562500      47.43785490
Cs      11.31442911      80.24087500      38.55735490
Cs      16.53152911      80.24087500      41.36714510
Cs      19.98817089      77.84562500      50.24764510
Cs      14.77107089      77.84562500      65.19885490
Cs      11.31442911      80.24087500      56.31835490
Cs      16.53152911      80.24087500      59.12814510
Cs      19.98817089      77.84562500      68.00864510
Cs      14.77107089      82.63612500      11.91585490
Cs      11.31442911      85.03137500       3.03535490
Cs      16.53152911      85.03137500       5.84514510
Cs      19.98817089      82.63612500      14.72564510
Cs      14.77107089      82.63612500      29.67685490
Cs      11.31442911      85.03137500      20.79635490
Cs      16.53152911      85.03137500      23.60614510
Cs      19.98817089      82.63612500      32.48664510
Cs      14.77107089      82.63612500      47.43785490
Cs      11.31442911      85.03137500      38.55735490
Cs      16.53152911      85.03137500      41.36714510
Cs      19.98817089      82.63612500      50.24764510
Cs      14.77107089      82.63612500      65.19885490
Cs      11.31442911      85.03137500      56.31835490
Cs      16.53152911      85.03137500      59.12814510
Cs      19.98817089      82.63612500      68.00864510
Cs      25.20527089       1.19762500      11.91585490
Cs      21.74862911       3.59287500       3.03535490
Cs      26.96572911       3.59287500       5.84514510
Cs      30.42237089       1.19762500      14.72564510
Cs      25.20527089       1.19762500      29.67685490
Cs      21.74862911       3.59287500      20.79635490
Cs      26.96572911       3.59287500      23.60614510
Cs      30.42237089       1.19762500      32.48664510
Cs      25.20527089       1.19762500      47.43785490
Cs      21.74862911       3.59287500      38.55735490
Cs      26.96572911       3.59287500      41.36714510
Cs      30.42237089       1.19762500      50.24764510
Cs      25.20527089       1.19762500      65.19885490
Cs      21.74862911       3.59287500      56.31835490
Cs      26.96572911       3.59287500      59.12814510
Cs      30.42237089       1.19762500      68.00864510
Cs      25.20527089       5.98812500      11.91585490
Cs      21.74862911       8.38337500       3.03535490
Cs      26.96572911       8.38337500       5.84514510
Cs      30.42237089       5.98812500      14.72564510
Cs      25.20527089       5.98812500      29.67685490
Cs      21.74862911       8.38337500      20.79635490
Cs      26.96572911       8.38337500      23.60614510
Cs      30.42237089       5.98812500      32.48664510
Cs      25.20527089       5.98812500      47.43785490
Cs      21.74862911       8.38337500      38.55735490
Cs      26.96572911       8.38337500      41.36714510
Cs      30.42237089       5.98812500      50.24764510
Cs      25.20527089       5.98812500      65.19885490
Cs      21.74862911       8.38337500      56.31835490
Cs      26.96572911       8.38337500      59.12814510
Cs      30.42237089       5.98812500      68.00864510
Cs      25.20527089      10.77862500      11.91585490
Cs      21.74862911      13.17387500       3.03535490
Cs      26.96572911      13.17387500       5.84514510
Cs      30.42237089      10.77862500      14.72564510
Cs      25.20527089      10.77862500      29.67685490
Cs      21.74862911      13.17387500      20.79635490
Cs      26.96572911      13.17387500      23.60614510
Cs      30.42237089      10.77862500      32.48664510
Cs      25.20527089      10.77862500      47.43785490
Cs      21.74862911      13.17387500      38.55735490
Cs      26.96572911      13.17387500      41.36714510
Cs      30.42237089      10.77862500      50.24764510
Cs      25.20527089      10.77862500      65.19885490
Cs      21.74862911      13.17387500      56.31835490
Cs      26.96572911      13.17387500      59.12814510
Cs      30.42237089      10.77862500      68.00864510
Cs      25.20527089      15.56912500      11.91585490
Cs      21.74862911      17.96437500       3.03535490
Cs      26.96572911      17.96437500       5.84514510
Cs      30.42237089      15.56912500      14.72564510
Cs      25.20527089      15.56912500      29.67685490
Cs      21.74862911      17.96437500      20.79635490
Cs      26.96572911      17.96437500      23.60614510
Cs      30.42237089      15.56912500      32.48664510
Cs      25.20527089      15.56912500      47.43785490
Cs      21.74862911      17.96437500      38.55735490
Cs      26.96572911      17.96437500      41.36714510
Cs      30.42237089      15.56912500      50.24764510
Cs      25.20527089      15.56912500      65.19885490
Cs      21.74862911      17.96437500      56.31835490
Cs      26.96572911      17.96437500      59.12814510
Cs      30.42237089      15.56912500      68.00864510
Cs      25.20527089      20.35962500      11.91585490
Cs      21.74862911      22.75487500       3.03535490
Cs      26.96572911      22.75487500       5.84514510
Cs      30.42237089      20.35962500      14.72564510
Cs      25.20527089      20.35962500      29.67685490
Cs      21.74862911      22.75487500      20.79635490
Cs      26.96572911      22.75487500      23.60614510
Cs      30.42237089      20.35962500      32.48664510
Cs      25.20527089      20.35962500      47.43785490
Cs      21.74862911      22.75487500      38.55735490
Cs      26.96572911      22.75487500      41.36714510
Cs      30.42237089      20.35962500      50.24764510
Cs      25.20527089      20.35962500      65.19885490
Cs      21.74862911      22.75487500      56.31835490
Cs      26.96572911      22.75487500      59.12814510
Cs      30.42237089      20.35962500      68.00864510
Cs      25.20527089      25.15012500      11.91585490
Cs      21.74862911      27.54537500       3.03535490
Cs      26.96572911      27.54537500       5.84514510
Cs      30.42237089      25.15012500      14.72564510
Cs      25.20527089      25.15012500      29.67685490
Cs      21.74862911      27.54537500      20.79635490
Cs      26.96572911      27.54537500      23.60614510
Cs      30.42237089      25.15012500      32.48664510
Cs      25.20527089      25.15012500      47.43785490
Cs      21.74862911      27.54537500      38.55735490
Cs      26.96572911      27.54537500      41.36714510
Cs      30.42237089      25.15012500      50.24764510
Cs      25.20527089      25.15012500      65.19885490
Cs      21.74862911      27.54537500      56.31835490
Cs      26.96572911      27.54537500      59.12814510
Cs      30.42237089      25.15012500      68.00864510
Cs      25.20527089      29.94062500      11.91585490
Cs      21.74862911      32.33587500       3.03535490
Cs      26.96572911      32.33587500       5.84514510
Cs      30.42237089      29.94062500      14.72564510
Cs      25.20527089      29.94062500      29.67685490
Cs      21.74862911      32.33587500      20.79635490
Cs      26.96572911      32.33587500      23.60614510
Cs      30.42237089      29.94062500      32.48664510
Cs      25.20527089      29.94062500      47.43785490
Cs      21.74862911      32.33587500      38.55735490
Cs      26.96572911      32.33587500      41.36714510
Cs      30.42237089      29.94062500      50.24764510
Cs      25.20527089      29.94062500      65.19885490
Cs      21.74862911      32.33587500      56.31835490
Cs      26.96572911      32.33587500      59.12814510
Cs      30.42237089      29.94062500      68.00864510
Cs      25.20527089      34.73112500      11.91585490
Cs      21.74862911      37.12637500       3.03535490
Cs      26.96572911      37.12637500       5.84514510
Cs      30.42237089      34.73112500      14.72564510
Cs      25.20527089      34.73112500      29.67685490
Cs      21.74862911      37.12637500      20.79635490
Cs      26.96572911      37.12637500      23.60614510
Cs      30.42237089      34.73112500      32.48664510
Cs      25.20527089      34.73112500      47.43785490
Cs      21.74862911      37.12637500      38.55735490
Cs      26.96572911      37.12637500      41.36714510
Cs      30.42237089      34.73112500      50.24764510
Cs      25.20527089      34.73112500      65.19885490
Cs      21.74862911      37.12637500      56.31835490
Cs      26.96572911      37.12637500      59.12814510
Cs      30.42237089      34.73112500      68.00864510
Cs      25.20527089      39.52162500      11.91585490
Cs      21.74862911      41.91687500       3.03535490
Cs      26.96572911      41.91687500       5.84514510
Cs      30.42237089      39.52162500      14.72564510
Cs      25.20527089      39.52162500      29.67685490
Cs      21.74862911      41.91687500      20.79635490
Cs      26.96572911      41.91687500      23.60614510
Cs      30.42237089      39.52162500      32.48664510
Cs      25.20527089      39.52162500      47.43785490
Cs      21.74862911      41.91687500      38.55735490
Cs      26.96572911      41.91687500      41.36714510
Cs      30.42237089      39.52162500      50.24764510
Cs      25.20527089      39.52162500      65.19885490
Cs      21.74862911      41.91687500      56.31835490
Cs      26.96572911      41.91687500      59.12814510
Cs      30.42237089      39.52162500      68.00864510
Cs      25.20527089      44.31212500      11.91585490
Cs      21.74862911      46.70737500       3.03535490
Cs      26.96572911      46.70737500       5.84514510
Cs      30.42237089      44.31212500      14.72564510
Cs      25.20527089      44.31212500      29.67685490
Cs      21.74862911      46.70737500      20.79635490
Cs      26.96572911      46.70737500      23.60614510
Cs      30.42237089      44.31212500      32.48664510
Cs      25.20527089      44.31212500      47.43785490
Cs      21.74862911      46.70737500      38.55735490
Cs      26.96572911      46.70737500      41.36714510
Cs      30.42237089      44.31212500      50.24764510
Cs      25.20527089      44.31212500      65.19885490
Cs      21.74862911      46.70737500      56.31835490
Cs      26.96572911      46.70737500      59.12814510
Cs      30.42237089      44.31212500      68.00864510
Cs      25.20527089      49.10262500      11.91585490
Cs      21.74862911      51.49787500       3.03535490
Cs      26.96572911      51.49787500       5.84514510
Cs      30.42237089      49.10262500      14.72564510
Cs      25.20527089      49.10262500      29.67685490
Cs      21.74862911      51.49787500      20.79635490
Cs      26.96572911      51.49787500      23.60614510
Cs      30.42237089      49.10262500      32.48664510
Cs      25.20527089      49.10262500      47.43785490
Cs      21.74862911      51.49787500      38.55735490
Cs      26.96572911      51.49787500      41.36714510
Cs      30.42237089      49.10262500      50.24764510
Cs      25.20527089      49.10262500      65.19885490
Cs      21.74862911      51.49787500      56.31835490
Cs      26.96572911      51.49787500      59.12814510
Cs      30.42237089      49.10262500      68.00864510
Cs      25.20527089      53.89312500      11.91585490
Cs      21.74862911      56.28837500       3.03535490
Cs      26.96572911      56.28837500       5.84514510
Cs      30.42237089      53.89312500      14.72564510
Cs      25.20527089      53.89312500      29.67685490
Cs      21.74862911      56.28837500      20.79635490
Cs      26.96572911      56.28837500      23.60614510
Cs      30.42237089      53.89312500      32.48664510
Cs      25.20527089      53.89312500      47.43785490
Cs      21.74862911      56.28837500      38.55735490
Cs      26.96572911      56.28837500      41.36714510
Cs      30.42237089      53.89312500      50.24764510
Cs      25.20527089      53.89312500      65.19885490
Cs      21.74862911      56.28837500      56.31835490
Cs      26.96572911      56.28837500      59.12814510
Cs      30.42237089      53.89312500      68.00864510
Cs      25.20527089      58.68362500      11.91585490
Cs      21.74862911      61.07887500       3.03535490
Cs      26.96572911      61.07887500       5.84514510
Cs      30.42237089      58.68362500      14.72564510
Cs      25.20527089      58.68362500      29.67685490
Cs      21.74862911      61.07887500      20.79635490
Cs      26.96572911      61.07887500      23.60614510
Cs      30.42237089      58.68362500      32.48664510
Cs      25.20527089      58.68362500      47.43785490
Cs      21.74862911      61.07887500      38.55735490
Cs      26.96572911      61.07887500      41.36714510
Cs      30.42237089      58.68362500      50.24764510
Cs      25.20527089      58.68362500      65.19885490
Cs      21.74862911      61.07887500      56.31835490
Cs      26.96572911      61.07887500      59.12814510
Cs      30.42237089      58.68362500      68.00864510
Cs      25.20527089      63.47412500      11.91585490
Cs      21.74862911      65.86937500       3.03535490
Cs      26.96572911      65.86937500       5.84514510
Cs      30.42237089      63.47412500      14.72564510
Cs      25.20527089      63.47412500      29.67685490
Cs      21.74862911      65.86937500      20.79635490
Cs      26.96572911      65.86937500      23.60614510
Cs      30.42237089      63.47412500      32.48664510
Cs      25.20527089      63.47412500      47.43785490
Cs      21.74862911      65.86937500      38.55735490
Cs      26.96572911      65.86937500      41.36714510
Cs      30.42237089      63.47412500      50.24764510
Cs      25.20527089      63.47412500      65.19885490
Cs      21.74862911      65.86937500      56.31835490
Cs      26.96572911      65.86937500      59.12814510
Cs      30.42237089      63.47412500      68.00864510
Cs      25.20527089      68.26462500      11.91585490
Cs      21.74862911      70.65987500       3.03535490
Cs      26.96572911      70.65987500       5.84514510
Cs      30.42237089      68.26462500      14.72564510
Cs      25.20527089      68.26462500      29.67685490
Cs      21.74862911      70.65987500      20.79635490
Cs      26.96572911      70.65987500      23.60614510
Cs      30.42237089      68.26462500      32.48664510
Cs      25.20527089      68.26462500      47.43785490
Cs      21.74862911      70.65987500      38.55735490
Cs      26.96572911      70.65987500      41.36714510
Cs      30.42237089      68.26462500      50.24764510
Cs      25.20527089      68.26462500      65.19885490
Cs      21.74862911      70.65987500      56.31835490
Cs      26.96572911      70.65987500      59.12814510
Cs      30.42237089      68.26462500      68.00864510
Cs      25.20527089      73.05512500      11.91585490
Cs      21.74862911      75.45037500       3.03535490
Cs      26.96572911      75.45037500       5.84514510
Cs      30.42237089      73.05512500      14.72564510
Cs      25.20527089      73.05512500      29.67685490
Cs      21.74862911      75.45037500      20.79635490
Cs      26.96572911      75.45037500      23.60614510
Cs      30.42237089      73.05512500      32.48664510
Cs      25.20527089      73.05512500      47.43785490
Cs      21.74862911      75.45037500      38.55735490
Cs      26.96572911      75.45037500      41.36714510
Cs      30.42237089      73.05512500      50.24764510
Cs      25.20527089      73.05512500      65.19885490
Cs      21.74862911      75.45037500      56.31835490
Cs      26.96572911      75.45037500      59.12814510
Cs      30.42237089      73.05512500      68.00864510
Cs      25.20527089      77.84562500      11.91585490
Cs      21.74862911      80.24087500       3.03535490
Cs      26.96572911      80.24087500       5.84514510
Cs      30.42237089      77.84562500      14.72564510
Cs      25.20527089      77.84562500      29.67685490
Cs      21.74862911      80.24087500      20.79635490
Cs      26.96572911      80.24087500      23.60614510
Cs      30.42237089      77.84562500      32.48664510
Cs      25.20527089      77.84562500      47.43785490
Cs      21.74862911      80.24087500      38.55735490
Cs      26.96572911      80.24087500      41.36714510
Cs      30.42237089      77.84562500      50.24764510
Cs      25.20527089      77.84562500      65.19885490
Cs      21.74862911      80.24087500      56.31835490
Cs      26.96572911      80.24087500      59.12814510
Cs      30.42237089      77.84562500      68.00864510
Cs      25.20527089      82.63612500      11.91585490
Cs      21.74862911      85.03137500       3.03535490
Cs      26.96572911      85.03137500       5.84514510
Cs      30.42237089      82.63612500      14.72564510
Cs      25.20527089      82.63612500      29.67685490
Cs      21.74862911      85.03137500      20.79635490
Cs      26.96572911      85.03137500      23.60614510
Cs      30.42237089      82.63612500      32.48664510
Cs      25.20527089      82.63612500      47.43785490
Cs      21.74862911      85.03137500      38.55735490
Cs      26.96572911      85.03137500      41.36714510
Cs      30.42237089      82.63612500      50.24764510
Cs      25.20527089      82.63612500      65.19885490
Cs      21.74862911      85.03137500      56.31835490
Cs      26.96572911      85.03137500      59.12814510
Cs      30.42237089      82.63612500      68.00864510
Cs      35.63947089       1.19762500      11.91585490
Cs      32.18282911       3.59287500       3.03535490
Cs      37.39992911       3.59287500       5.84514510
Cs      40.85657089       1.19762500      14.72564510
Cs      35.63947089       1.19762500      29.67685490
Cs      32.18282911       3.59287500      20.79635490
Cs      37.39992911       3.59287500      23.60614510
Cs      40.85657089       1.19762500      32.48664510
Cs      35.63947089       1.19762500      47.43785490
Cs      32.18282911       3.59287500      38.55735490
Cs      37.39992911       3.59287500      41.36714510
Cs      40.85657089       1.19762500      50.24764510
Cs      35.63947089       1.19762500      65.19885490
Cs      32.18282911       3.59287500      56.31835490
Cs      37.39992911       3.59287500      59.12814510
Cs      40.85657089       1.19762500      68.00864510
Cs      35.63947089       5.98812500      11.91585490
Cs      32.18282911       8.38337500       3.03535490
Cs      37.39992911       8.38337500       5.84514510
Cs      40.85657089       5.98812500      14.72564510
Cs      35.63947089       5.98812500      29.67685490
Cs      32.18282911       8.38337500      20.79635490
Cs      37.39992911       8.38337500      23.60614510
Cs      40.85657089       5.98812500      32.48664510
Cs      35.63947089       5.98812500      47.43785490
Cs      32.18282911       8.38337500      38.55735490
Cs      37.39992911       8.38337500      41.36714510
Cs      40.85657089       5.98812500      50.24764510
Cs      35.63947089       5.98812500      65.19885490
Cs      32.18282911       8.38337500      56.31835490
Cs      37.39992911       8.38337500      59.12814510
Cs      40.85657089       5.98812500      68.00864510
Cs      35.63947089      10.77862500      11.91585490
Cs      32.18282911      13.17387500       3.03535490
Cs      37.39992911      13.17387500       5.84514510
Cs      40.85657089      10.77862500      14.72564510
Cs      35.63947089      10.77862500      29.67685490
Cs      32.18282911      13.17387500      20.79635490
Cs      37.39992911      13.17387500      23.60614510
Cs      40.85657089      10.77862500      32.48664510
Cs      35.63947089      10.77862500      47.43785490
Cs      32.18282911      13.17387500      38.55735490
Cs      37.39992911      13.17387500      41.36714510
Cs      40.85657089      10.77862500      50.24764510
Cs      35.63947089      10.77862500      65.19885490
Cs      32.18282911      13.17387500      56.31835490
Cs      37.39992911      13.17387500      59.12814510
Cs      40.85657089      10.77862500      68.00864510
Cs      35.63947089      15.56912500      11.91585490
Cs      32.18282911      17.96437500       3.03535490
Cs      37.39992911      17.96437500       5.84514510
Cs      40.85657089      15.56912500      14.72564510
Cs      35.63947089      15.56912500      29.67685490
Cs      32.18282911      17.96437500      20.79635490
Cs      37.39992911      17.96437500      23.60614510
Cs      40.85657089      15.56912500      32.48664510
Cs      35.63947089      15.56912500      47.43785490
Cs      32.18282911      17.96437500      38.55735490
Cs      37.39992911      17.96437500      41.36714510
Cs      40.85657089      15.56912500      50.24764510
Cs      35.63947089      15.56912500      65.19885490
Cs      32.18282911      17.96437500      56.31835490
Cs      37.39992911      17.96437500      59.12814510
Cs      40.85657089      15.56912500      68.00864510
Cs      35.63947089      20.35962500      11.91585490
Cs      32.18282911      22.75487500       3.03535490
Cs      37.39992911      22.75487500       5.84514510
Cs      40.85657089      20.35962500      14.72564510
Cs      35.63947089      20.35962500      29.67685490
Cs      32.18282911      22.75487500      20.79635490
Cs      37.39992911      22.75487500      23.60614510
Cs      40.85657089      20.35962500      32.48664510
Cs      35.63947089      20.35962500      47.43785490
Cs      32.18282911      22.75487500      38.55735490
Cs      37.39992911      22.75487500      41.36714510
Cs      40.85657089      20.35962500      50.24764510
Cs      35.63947089      20.35962500      65.19885490
Cs      32.18282911      22.75487500      56.31835490
Cs      37.39992911      22.75487500      59.12814510
Cs      40.85657089      20.35962500      68.00864510
Cs      35.63947089      25.15012500      11.91585490
Cs      32.18282911      27.54537500       3.03535490
Cs      37.39992911      27.54537500       5.84514510
Cs      40.85657089      25.15012500      14.72564510
Cs      35.63947089      25.15012500      29.67685490
Cs      32.18282911      27.54537500      20.79635490
Cs      37.39992911      27.54537500      23.60614510
Cs      40.85657089      25.15012500      32.48664510
Cs      35.63947089      25.15012500      47.43785490
Cs      32.18282911      27.54537500      38.55735490
Cs      37.39992911      27.54537500      41.36714510
Cs      40.85657089      25.15012500      50.24764510
Cs      35.63947089      25.15012500      65.19885490
Cs      32.18282911      27.54537500      56.31835490
Cs      37.39992911      27.54537500      59.12814510
Cs      40.85657089      25.15012500      68.00864510
Cs      35.63947089      29.94062500      11.91585490
Cs      32.18282911      32.33587500       3.03535490
Cs      37.39992911      32.33587500       5.84514510
Cs      40.85657089      29.94062500      14.72564510
Cs      35.63947089      29.94062500      29.67685490
Cs      32.18282911      32.33587500      20.79635490
Cs      37.39992911      32.33587500      23.60614510
Cs      40.85657089      29.94062500      32.48664510
Cs      35.63947089      29.94062500      47.43785490
Cs      32.18282911      32.33587500      38.55735490
Cs      37.39992911      32.33587500      41.36714510
Cs      40.85657089      29.94062500      50.24764510
Cs      35.63947089      29.94062500      65.19885490
Cs      32.18282911      32.33587500      56.31835490
Cs      37.39992911      32.33587500      59.12814510
Cs      40.85657089      29.94062500      68.00864510
Cs      35.63947089      34.73112500      11.91585490
Cs      32.18282911      37.12637500       3.03535490
Cs      37.39992911      37.12637500       5.84514510
Cs      40.85657089      34.73112500      14.72564510
Cs      35.63947089      34.73112500      29.67685490
Cs      32.18282911      37.12637500      20.79635490
Cs      37.39992911      37.12637500      23.60614510
Cs      40.85657089      34.73112500      32.48664510
Cs      35.63947089      34.73112500      47.43785490
Cs      32.18282911      37.12637500      38.55735490
Cs      37.39992911      37.12637500      41.36714510
Cs      40.85657089      34.73112500      50.24764510
Cs      35.63947089      34.73112500      65.19885490
Cs      32.18282911      37.12637500      56.31835490
Cs      37.39992911      37.12637500      59.12814510
Cs      40.85657089      34.73112500      68.00864510
Cs      35.63947089      39.52162500      11.91585490
Cs      32.18282911      41.91687500       3.03535490
Cs      37.39992911      41.91687500       5.84514510
Cs      40.85657089      39.52162500      14.72564510
Cs      35.63947089      39.52162500      29.67685490
Cs      32.18282911      41.91687500      20.79635490
Cs      37.39992911      41.91687500      23.60614510
Cs      40.85657089      39.52162500      32.48664510
Cs      35.63947089      39.52162500      47.43785490
Cs      32.18282911      41.91687500      38.55735490
Cs      37.39992911      41.91687500      41.36714510
Cs      40.85657089      39.52162500      50.24764510
Cs      35.63947089      39.52162500      65.19885490
Cs      32.18282911      41.91687500      56.31835490
Cs      37.39992911      41.91687500      59.12814510
Cs      40.85657089      39.52162500      68.00864510
Cs      35.63947089      44.31212500      11.91585490
Cs      32.18282911      46.70737500       3.03535490
Cs      37.39992911      46.70737500       5.84514510
Cs      40.85657089      44.31212500      14.72564510
Cs      35.63947089      44.31212500      29.67685490
Cs      32.18282911      46.70737500      20.79635490
Cs      37.39992911      46.70737500      23.60614510
Cs      40.85657089      44.31212500      32.48664510
Cs      35.63947089      44.31212500      47.43785490
Cs      32.18282911      46.70737500      38.55735490
Cs      37.39992911      46.70737500      41.36714510
Cs      40.85657089      44.31212500      50.24764510
Cs      35.63947089      44.31212500      65.19885490
Cs      32.18282911      46.70737500      56.31835490
Cs      37.39992911      46.70737500      59.12814510
Cs      40.85657089      44.31212500      68.00864510
Cs      35.63947089      49.10262500      11.91585490
Cs      32.18282911      51.49787500       3.03535490
Cs      37.39992911      51.49787500       5.84514510
Cs      40.85657089      49.10262500      14.72564510
Cs      35.63947089      49.10262500      29.67685490
Cs      32.18282911      51.49787500      20.79635490
Cs      37.39992911      51.49787500      23.60614510
Cs      40.85657089      49.10262500      32.48664510
Cs      35.63947089      49.10262500      47.43785490
Cs      32.18282911      51.49787500      38.55735490
Cs      37.39992911      51.49787500      41.36714510
Cs      40.85657089      49.10262500      50.24764510
Cs      35.63947089      49.10262500      65.19885490
Cs      32.18282911      51.49787500      56.31835490
Cs      37.39992911      51.49787500      59.12814510
Cs      40.85657089      49.10262500      68.00864510
Cs      35.63947089      53.89312500      11.91585490
Cs      32.18282911      56.28837500       3.03535490
Cs      37.39992911      56.28837500       5.84514510
Cs      40.85657089      53.89312500      14.72564510
Cs      35.63947089      53.89312500      29.67685490
Cs      32.18282911      56.28837500      20.79635490
Cs      37.39992911      56.28837500      23.60614510
Cs      40.85657089      53.89312500      32.48664510
Cs      35.63947089      53.89312500      47.43785490
Cs      32.18282911      56.28837500      38.55735490
Cs      37.39992911      56.28837500      41.36714510
Cs      40.85657089      53.89312500      50.24764510
Cs      35.63947089      53.89312500      65.19885490
Cs      32.18282911      56.28837500      56.31835490
Cs      37.39992911      56.28837500      59.12814510
Cs      40.85657089      53.89312500      68.00864510
Cs      35.63947089      58.68362500      11.91585490
Cs      32.18282911      61.07887500       3.03535490
Cs      37.39992911      61.07887500       5.84514510
Cs      40.85657089      58.68362500      14.72564510
Cs      35.63947089      58.68362500      29.67685490
Cs      32.18282911      61.07887500      20.79635490
Cs      37.39992911      61.07887500      23.60614510
Cs      40.85657089      58.68362500      32.48664510
Cs      35.63947089      58.68362500      47.43785490
Cs      32.18282911      61.07887500      38.55735490
Cs      37.39992911      61.07887500      41.36714510
Cs      40.85657089      58.68362500      50.24764510
Cs      35.63947089      58.68362500      65.19885490
Cs      32.18282911      61.07887500      56.31835490
Cs      37.39992911      61.07887500      59.12814510
Cs      40.85657089      58.68362500      68.00864510
Cs      35.63947089      63.47412500      11.91585490
Cs      32.18282911      65.86937500       3.03535490
Cs      37.39992911      65.86937500       5.84514510
Cs      40.85657089      63.47412500      14.72564510
Cs      35.63947089      63.47412500      29.67685490
Cs      32.18282911      65.86937500      20.79635490
Cs      37.39992911      65.86937500      23.60614510
Cs      40.85657089      63.47412500      32.48664510
Cs      35.63947089      63.47412500      47.43785490
Cs      32.18282911      65.86937500      38.55735490
Cs      37.39992911      65.86937500      41.36714510
Cs      40.85657089      63.47412500      50.24764510
Cs      35.63947089      63.47412500      65.19885490
Cs      32.18282911      65.86937500      56.31835490
Cs      37.39992911      65.86937500      59.12814510
Cs      40.85657089      63.47412500      68.00864510
Cs      35.63947089      68.26462500      11.91585490
Cs      32.18282911      70.65987500       3.03535490
Cs      37.39992911      70.65987500       5.84514510
Cs      40.85657089      68.26462500      14.72564510
Cs      35.63947089      68.26462500      29.67685490
Cs      32.18282911      70.65987500      20.79635490
Cs      37.39992911      70.65987500      23.60614510
Cs      40.85657089      68.26462500      32.48664510
Cs      35.63947089      68.26462500      47.43785490
Cs      32.18282911      70.65987500      38.55735490
Cs      37.39992911      70.65987500      41.36714510
Cs      40.85657089      68.26462500      50.24764510
Cs      35.63947089      68.26462500      65.19885490
Cs      32.18282911      70.65987500      56.31835490
Cs      37.39992911      70.65987500      59.12814510
Cs      40.85657089      68.26462500      68.00864510
Cs      35.63947089      73.05512500      11.91585490
Cs      32.18282911      75.45037500       3.03535490
Cs      37.39992911      75.45037500       5.84514510
Cs      40.85657089      73.05512500      14.72564510
Cs      35.63947089      73.05512500      29.67685490
Cs      32.18282911      75.45037500      20.79635490
Cs      37.39992911      75.45037500      23.60614510
Cs      40.85657089      73.05512500      32.48664510
Cs      35.63947089      73.05512500      47.43785490
Cs      32.18282911      75.45037500      38.55735490
Cs      37.39992911      75.45037500      41.36714510
Cs      40.85657089      73.05512500      50.24764510
Cs      35.63947089      73.05512500      65.19885490
Cs      32.18282911      75.45037500      56.31835490
Cs      37.39992911      75.45037500      59.12814510
Cs      40.85657089      73.05512500      68.00864510
Cs      35.63947089      77.84562500      11.91585490
Cs      32.18282911      80.24087500       3.03535490
Cs      37.39992911      80.24087500       5.84514510
Cs      40.85657089      77.84562500      14.72564510
Cs      35.63947089      77.84562500      29.67685490
Cs      32.18282911      80.24087500      20.79635490
Cs      37.39992911      80.24087500      23.60614510
Cs      40.85657089      77.84562500      32.48664510
Cs      35.63947089      77.84562500      47.43785490
Cs      32.18282911      80.24087500      38.55735490
Cs      37.39992911      80.24087500      41.36714510
Cs      40.85657089      77.84562500      50.24764510
Cs      35.63947089      77.84562500      65.19885490
Cs      32.18282911      80.24087500      56.31835490
Cs      37.39992911      80.24087500      59.12814510
Cs      40.85657089      77.84562500      68.00864510
Cs      35.63947089      82.63612500      11.91585490
Cs      32.18282911      85.03137500       3.03535490
Cs      37.39992911      85.03137500       5.84514510
Cs      40.85657089      82.63612500      14.72564510
Cs      35.63947089      82.63612500      29.67685490
Cs      32.18282911      85.03137500      20.79635490
Cs      37.39992911      85.03137500      23.60614510
Cs      40.85657089      82.63612500      32.48664510
Cs      35.63947089      82.63612500      47.43785490
Cs      32.18282911      85.03137500      38.55735490
Cs      37.39992911      85.03137500      41.36714510
Cs      40.85657089      82.63612500      50.24764510
Cs      35.63947089      82.63612500      65.19885490
Cs      32.18282911      85.03137500      56.31835490
Cs      37.39992911      85.03137500      59.12814510
Cs      40.85657089      82.63612500      68.00864510
Cs      46.07367089       1.19762500      11.91585490
Cs      42.61702911       3.59287500       3.03535490
Cs      47.83412911       3.59287500       5.84514510
Cs      51.29077089       1.19762500      14.72564510
Cs      46.07367089       1.19762500      29.67685490
Cs      42.61702911       3.59287500      20.79635490
Cs      47.83412911       3.59287500      23.60614510
Cs      51.29077089       1.19762500      32.48664510
Cs      46.07367089       1.19762500      47.43785490
Cs      42.61702911       3.59287500      38.55735490
Cs      47.83412911       3.59287500      41.36714510
Cs      51.29077089       1.19762500      50.24764510
Cs      46.07367089       1.19762500      65.19885490
Cs      42.61702911       3.59287500      56.31835490
Cs      47.83412911       3.59287500      59.12814510
Cs      51.29077089       1.19762500      68.00864510
Cs      46.07367089       5.98812500      11.91585490
Cs      42.61702911       8.38337500       3.03535490
Cs      47.83412911       8.38337500       5.84514510
Cs      51.29077089       5.98812500      14.72564510
Cs      46.07367089       5.98812500      29.67685490
Cs      42.61702911       8.38337500      20.79635490
Cs      47.83412911       8.38337500      23.60614510
Cs      51.29077089       5.98812500      32.48664510
Cs      46.07367089       5.98812500      47.43785490
Cs      42.61702911       8.38337500      38.55735490
Cs      47.83412911       8.38337500      41.36714510
Cs      51.29077089       5.98812500      50.24764510
Cs      46.07367089       5.98812500      65.19885490
Cs      42.61702911       8.38337500      56.31835490
Cs      47.83412911       8.38337500      59.12814510
Cs      51.29077089       5.98812500      68.00864510
Cs      46.07367089      10.77862500      11.91585490
Cs      42.61702911      13.17387500       3.03535490
Cs      47.83412911      13.17387500       5.84514510
Cs      51.29077089      10.77862500      14.72564510
Cs      46.07367089      10.77862500      29.67685490
Cs      42.61702911      13.17387500      20.79635490
Cs      47.83412911      13.17387500      23.60614510
Cs      51.29077089      10.77862500      32.48664510
Cs      46.07367089      10.77862500      47.43785490
Cs      42.61702911      13.17387500      38.55735490
Cs      47.83412911      13.17387500      41.36714510
Cs      51.29077089      10.77862500      50.24764510
Cs      46.07367089      10.77862500      65.19885490
Cs      42.61702911      13.17387500      56.31835490
Cs      47.83412911      13.17387500      59.12814510
Cs      51.29077089      10.77862500      68.00864510
Cs      46.07367089      15.56912500      11.91585490
Cs      42.61702911      17.96437500       3.03535490
Cs      47.83412911      17.96437500       5.84514510
Cs      51.29077089      15.56912500      14.72564510
Cs      46.07367089      15.56912500      29.67685490
Cs      42.61702911      17.96437500      20.79635490
Cs      47.83412911      17.96437500      23.60614510
Cs      51.29077089      15.56912500      32.48664510
Cs      46.07367089      15.56912500      47.43785490
Cs      42.61702911      17.96437500      38.55735490
Cs      47.83412911      17.96437500      41.36714510
Cs      51.29077089      15.56912500      50.24764510
Cs      46.07367089      15.56912500      65.19885490
Cs      42.61702911      17.96437500      56.31835490
Cs      47.83412911      17.96437500      59.12814510
Cs      51.29077089      15.56912500      68.00864510
Cs      46.07367089      20.35962500      11.91585490
Cs      42.61702911      22.75487500       3.03535490
Cs      47.83412911      22.75487500       5.84514510
Cs      51.29077089      20.35962500      14.72564510
Cs      46.07367089      20.35962500      29.67685490
Cs      42.61702911      22.75487500      20.79635490
Cs      47.83412911      22.75487500      23.60614510
Cs      51.29077089      20.35962500      32.48664510
Cs      46.07367089      20.35962500      47.43785490
Cs      42.61702911      22.75487500      38.55735490
Cs      47.83412911      22.75487500      41.36714510
Cs      51.29077089      20.35962500      50.24764510
Cs      46.07367089      20.35962500      65.19885490
Cs      42.61702911      22.75487500      56.31835490
Cs      47.83412911      22.75487500      59.12814510
Cs      51.29077089      20.35962500      68.00864510
Cs      46.07367089      25.15012500      11.91585490
Cs      42.61702911      27.54537500       3.03535490
Cs      47.83412911      27.54537500       5.84514510
Cs      51.29077089      25.15012500      14.72564510
Cs      46.07367089      25.15012500      29.67685490
Cs      42.61702911      27.54537500      20.79635490
Cs      47.83412911      27.54537500      23.60614510
Cs      51.29077089      25.15012500      32.48664510
Cs      46.07367089      25.15012500      47.43785490
Cs      42.61702911      27.54537500      38.55735490
Cs      47.83412911      27.54537500      41.36714510
Cs      51.29077089      25.15012500      50.24764510
Cs      46.07367089      25.15012500      65.19885490
Cs      42.61702911      27.54537500      56.31835490
Cs      47.83412911      27.54537500      59.12814510
Cs      51.29077089      25.15012500      68.00864510
Cs      46.07367089      29.94062500      11.91585490
Cs      42.61702911      32.33587500       3.03535490
Cs      47.83412911      32.33587500       5.84514510
Cs      51.29077089      29.94062500      14.72564510
Cs      46.07367089      29.94062500      29.67685490
Cs      42.61702911      32.33587500      20.79635490
Cs      47.83412911      32.33587500      23.60614510
Cs      51.29077089      29.94062500      32.48664510
Cs      46.07367089      29.94062500      47.43785490
Cs      42.61702911      32.33587500      38.55735490
Cs      47.83412911      32.33587500      41.36714510
Cs      51.29077089      29.94062500      50.24764510
Cs      46.07367089      29.94062500      65.19885490
Cs      42.61702911      32.33587500      56.31835490
Cs      47.83412911      32.33587500      59.12814510
Cs      51.29077089      29.94062500      68.00864510
Cs      46.07367089      34.73112500      11.91585490
Cs      42.61702911      37.12637500       3.03535490
Cs      47.83412911      37.12637500       5.84514510
Cs      51.29077089      34.73112500      14.72564510
Cs      46.07367089      34.73112500      29.67685490
Cs      42.61702911      37.12637500      20.79635490
Cs      47.83412911      37.12637500      23.60614510
Cs      51.29077089      34.73112500      32.48664510
Cs      46.07367089      34.73112500      47.43785490
Cs      42.61702911      37.12637500      38.55735490
Cs      47.83412911      37.12637500      41.36714510
Cs      51.29077089      34.73112500      50.24764510
Cs      46.07367089      34.73112500      65.19885490
Cs      42.61702911      37.12637500      56.31835490
Cs      47.83412911      37.12637500      59.12814510
Cs      51.29077089      34.73112500      68.00864510
Cs      46.07367089      39.52162500      11.91585490
Cs      42.61702911      41.91687500       3.03535490
Cs      47.83412911      41.91687500       5.84514510
Cs      51.29077089      39.52162500      14.72564510
Cs      46.07367089      39.52162500      29.67685490
Cs      42.61702911      41.91687500      20.79635490
Cs      47.83412911      41.91687500      23.60614510
Cs      51.29077089      39.52162500      32.48664510
Cs      46.07367089      39.52162500      47.43785490
Cs      42.61702911      41.91687500      38.55735490
Cs      47.83412911      41.91687500      41.36714510
Cs      51.29077089      39.52162500      50.24764510
Cs      46.07367089      39.52162500      65.19885490
Cs      42.61702911      41.91687500      56.31835490
Cs      47.83412911      41.91687500      59.12814510
Cs      51.29077089      39.52162500      68.00864510
Cs      46.07367089      44.31212500      11.91585490
Cs      42.61702911      46.70737500       3.03535490
Cs      47.83412911      46.70737500       5.84514510
Cs      51.29077089      44.31212500      14.72564510
Cs      46.07367089      44.31212500      29.67685490
Cs      42.61702911      46.70737500      20.79635490
Cs      47.83412911      46.70737500      23.60614510
Cs      51.29077089      44.31212500      32.48664510
Cs      46.07367089      44.31212500      47.43785490
Cs      42.61702911      46.70737500      38.55735490
Cs      47.83412911      46.70737500      41.36714510
Cs      51.29077089      44.31212500      50.24764510
Cs      46.07367089      44.31212500      65.19885490
Cs      42.61702911      46.70737500      56.31835490
Cs      47.83412911      46.70737500      59.12814510
Cs      51.29077089      44.31212500      68.00864510
Cs      46.07367089      49.10262500      11.91585490
Cs      42.61702911      51.49787500       3.03535490
Cs      47.83412911      51.49787500       5.84514510
Cs      51.29077089      49.10262500      14.72564510
Cs      46.07367089      49.10262500      29.67685490
Cs      42.61702911      51.49787500      20.79635490
Cs      47.83412911      51.49787500      23.60614510
Cs      51.29077089      49.10262500      32.48664510
Cs      46.07367089      49.10262500      47.43785490
Cs      42.61702911      51.49787500      38.55735490
Cs      47.83412911      51.49787500      41.36714510
Cs      51.29077089      49.10262500      50.24764510
Cs      46.07367089      49.10262500      65.19885490
Cs      42.61702911      51.49787500      56.31835490
Cs      47.83412911      51.49787500      59.12814510
Cs      51.29077089      49.10262500      68.00864510
Cs      46.07367089      53.89312500      11.91585490
Cs      42.61702911      56.28837500       3.03535490
Cs      47.83412911      56.28837500       5.84514510
Cs      51.29077089      53.89312500      14.72564510
Cs      46.07367089      53.89312500      29.67685490
Cs      42.61702911      56.28837500      20.79635490
Cs      47.83412911      56.28837500      23.60614510
Cs      51.29077089      53.89312500      32.48664510
Cs      46.07367089      53.89312500      47.43785490
Cs      42.61702911      56.28837500      38.55735490
Cs      47.83412911      56.28837500      41.36714510
Cs      51.29077089      53.89312500      50.24764510
Cs      46.07367089      53.89312500      65.19885490
Cs      42.61702911      56.28837500      56.31835490
Cs      47.83412911      56.28837500      59.12814510
Cs      51.29077089      53.89312500      68.00864510
Cs      46.07367089      58.68362500      11.91585490
Cs      42.61702911      61.07887500       3.03535490
Cs      47.83412911      61.07887500       5.84514510
Cs      51.29077089      58.68362500      14.72564510
Cs      46.07367089      58.68362500      29.67685490
Cs      42.61702911      61.07887500      20.79635490
Cs      47.83412911      61.07887500      23.60614510
Cs      51.29077089      58.68362500      32.48664510
Cs      46.07367089      58.68362500      47.43785490
Cs      42.61702911      61.07887500      38.55735490
Cs      47.83412911      61.07887500      41.36714510
Cs      51.29077089      58.68362500      50.24764510
Cs      46.07367089      58.68362500      65.19885490
Cs      42.61702911      61.07887500      56.31835490
Cs      47.83412911      61.07887500      59.12814510
Cs      51.29077089      58.68362500      68.00864510
Cs      46.07367089      63.47412500      11.91585490
Cs      42.61702911      65.86937500       3.03535490
Cs      47.83412911      65.86937500       5.84514510
Cs      51.29077089      63.47412500      14.72564510
Cs      46.07367089      63.47412500      29.67685490
Cs      42.61702911      65.86937500      20.79635490
Cs      47.83412911      65.86937500      23.60614510
Cs      51.29077089      63.47412500      32.48664510
Cs      46.07367089      63.47412500      47.43785490
Cs      42.61702911      65.86937500      38.55735490
Cs      47.83412911      65.86937500      41.36714510
Cs      51.29077089      63.47412500      50.24764510
Cs      46.07367089      63.47412500      65.19885490
Cs      42.61702911      65.86937500      56.31835490
Cs      47.83412911      65.86937500      59.12814510
Cs      51.29077089      63.47412500      68.00864510
Cs      46.07367089      68.26462500      11.91585490
Cs      42.61702911      70.65987500       3.03535490
Cs      47.83412911      70.65987500       5.84514510
Cs      51.29077089      68.26462500      14.72564510
Cs      46.07367089      68.26462500      29.67685490
Cs      42.61702911      70.65987500      20.79635490
Cs      47.83412911      70.65987500      23.60614510
Cs      51.29077089      68.26462500      32.48664510
Cs      46.07367089      68.26462500      47.43785490
Cs      42.61702911      70.65987500      38.55735490
Cs      47.83412911      70.65987500      41.36714510
Cs      51.29077089      68.26462500      50.24764510
Cs      46.07367089      68.26462500      65.19885490
Cs      42.61702911      70.65987500      56.31835490
Cs      47.83412911      70.65987500      59.12814510
Cs      51.29077089      68.26462500      68.00864510
Cs      46.07367089      73.05512500      11.91585490
Cs      42.61702911      75.45037500       3.03535490
Cs      47.83412911      75.45037500       5.84514510
Cs      51.29077089      73.05512500      14.72564510
Cs      46.07367089      73.05512500      29.67685490
Cs      42.61702911      75.45037500      20.79635490
Cs      47.83412911      75.45037500      23.60614510
Cs      51.29077089      73.05512500      32.48664510
Cs      46.07367089      73.05512500      47.43785490
Cs      42.61702911      75.45037500      38.55735490
Cs      47.83412911      75.45037500      41.36714510
Cs      51.29077089      73.05512500      50.24764510
Cs      46.07367089      73.05512500      65.19885490
Cs      42.61702911      75.45037500      56.31835490
Cs      47.83412911      75.45037500      59.12814510
Cs      51.29077089      73.05512500      68.00864510
Cs      46.07367089      77.84562500      11.91585490
Cs      42.61702911      80.24087500       3.03535490
Cs      47.83412911      80.24087500       5.84514510
Cs      51.29077089      77.84562500      14.72564510
Cs      46.07367089      77.84562500      29.67685490
Cs      42.61702911      80.24087500      20.79635490
Cs      47.83412911      80.24087500      23.60614510
Cs      51.29077089      77.84562500      32.48664510
Cs      46.07367089      77.84562500      47.43785490
Cs      42.61702911      80.24087500      38.55735490
Cs      47.83412911      80.24087500      41.36714510
Cs      51.29077089      77.84562500      50.24764510
Cs      46.07367089      77.84562500      65.19885490
Cs      42.61702911      80.24087500      56.31835490
Cs      47.83412911      80.24087500      59.12814510
Cs      51.29077089      77.84562500      68.00864510
Cs      46.07367089      82.63612500      11.91585490
Cs      42.61702911      85.03137500       3.03535490
Cs      47.83412911      85.03137500       5.84514510
Cs      51.29077089      82.63612500      14.72564510
Cs      46.07367089      82.63612500      29.67685490
Cs      42.61702911      85.03137500      20.79635490
Cs      47.83412911      85.03137500      23.60614510
Cs      51.29077089      82.63612500      32.48664510
Cs      46.07367089      82.63612500      47.43785490
Cs      42.61702911      85.03137500      38.55735490
Cs      47.83412911      85.03137500      41.36714510
Cs      51.29077089      82.63612500      50.24764510
Cs      46.07367089      82.63612500      65.19885490
Cs      42.61702911      85.03137500      56.31835490
Cs      47.83412911      85.03137500      59.12814510
Cs      51.29077089      82.63612500      68.00864510
Cs      56.50787089       1.19762500      11.91585490
Cs      53.05122911       3.59287500       3.03535490
Cs      58.26832911       3.59287500       5.84514510
Cs      61.72497089       1.19762500      14.72564510
Cs      56.50787089       1.19762500      29.67685490
Cs      53.05122911       3.59287500      20.79635490
Cs      58.26832911       3.59287500      23.60614510
Cs      61.72497089       1.19762500      32.48664510
Cs      56.50787089       1.19762500      47.43785490
Cs      53.05122911       3.59287500      38.55735490
Cs      58.26832911       3.59287500      41.36714510
Cs      61.72497089       1.19762500      50.24764510
Cs      56.50787089       1.19762500      65.19885490
Cs      53.05122911       3.59287500      56.31835490
Cs      58.26832911       3.59287500      59.12814510
Cs      61.72497089       1.19762500      68.00864510
Cs      56.50787089       5.98812500      11.91585490
Cs      53.05122911       8.38337500       3.03535490
Cs      58.26832911       8.38337500       5.84514510
Cs      61.72497089       5.98812500      14.72564510
Cs      56.50787089       5.98812500      29.67685490
Cs      53.05122911       8.38337500      20.79635490
Cs      58.26832911       8.38337500      23.60614510
Cs      61.72497089       5.98812500      32.48664510
Cs      56.50787089       5.98812500      47.43785490
Cs      53.05122911       8.38337500      38.55735490
Cs      58.26832911       8.38337500      41.36714510
Cs      61.72497089       5.98812500      50.24764510
Cs      56.50787089       5.98812500      65.19885490
Cs      53.05122911       8.38337500      56.31835490
Cs      58.26832911       8.38337500      59.12814510
Cs      61.72497089       5.98812500      68.00864510
Cs      56.50787089      10.77862500      11.91585490
Cs      53.05122911      13.17387500       3.03535490
Cs      58.26832911      13.17387500       5.84514510
Cs      61.72497089      10.77862500      14.72564510
Cs      56.50787089      10.77862500      29.67685490
Cs      53.05122911      13.17387500      20.79635490
Cs      58.26832911      13.17387500      23.60614510
Cs      61.72497089      10.77862500      32.48664510
Cs      56.50787089      10.77862500      47.43785490
Cs      53.05122911      13.17387500      38.55735490
Cs      58.26832911      13.17387500      41.36714510
Cs      61.72497089      10.77862500      50.24764510
Cs      56.50787089      10.77862500      65.19885490
Cs      53.05122911      13.17387500      56.31835490
Cs      58.26832911      13.17387500      59.12814510
Cs      61.72497089      10.77862500      68.00864510
Cs      56.50787089      15.56912500      11.91585490
Cs      53.05122911      17.96437500       3.03535490
Cs      58.26832911      17.96437500       5.84514510
Cs      61.72497089      15.56912500      14.72564510
Cs      56.50787089      15.56912500      29.67685490
Cs      53.05122911      17.96437500      20.79635490
Cs      58.26832911      17.96437500      23.60614510
Cs      61.72497089      15.56912500      32.48664510
Cs      56.50787089      15.56912500      47.43785490
Cs      53.05122911      17.96437500      38.55735490
Cs      58.26832911      17.96437500      41.36714510
Cs      61.72497089      15.56912500      50.24764510
Cs      56.50787089      15.56912500      65.19885490
Cs      53.05122911      17.96437500      56.31835490
Cs      58.26832911      17.96437500      59.12814510
Cs      61.72497089      15.56912500      68.00864510
Cs      56.50787089      20.35962500      11.91585490
Cs      53.05122911      22.75487500       3.03535490
Cs      58.26832911      22.75487500       5.84514510
Cs      61.72497089      20.35962500      14.72564510
Cs      56.50787089      20.35962500      29.67685490
Cs      53.05122911      22.75487500      20.79635490
Cs      58.26832911      22.75487500      23.60614510
Cs      61.72497089      20.35962500      32.48664510
Cs      56.50787089      20.35962500      47.43785490
Cs      53.05122911      22.75487500      38.55735490
Cs      58.26832911      22.75487500      41.36714510
Cs      61.72497089      20.35962500      50.24764510
Cs      56.50787089      20.35962500      65.19885490
Cs      53.05122911      22.75487500      56.31835490
Cs      58.26832911      22.75487500      59.12814510
Cs      61.72497089      20.35962500      68.00864510
Cs      56.50787089      25.15012500      11.91585490
Cs      53.05122911      27.54537500       3.03535490
Cs      58.26832911      27.54537500       5.84514510
Cs      61.72497089      25.15012500      14.72564510
Cs      56.50787089      25.15012500      29.67685490
Cs      53.05122911      27.54537500      20.79635490
Cs      58.26832911      27.54537500      23.60614510
Cs      61.72497089      25.15012500      32.48664510
Cs      56.50787089      25.15012500      47.43785490
Cs      53.05122911      27.54537500      38.55735490
Cs      58.26832911      27.54537500      41.36714510
Cs      61.72497089      25.15012500      50.24764510
Cs      56.50787089      25.15012500      65.19885490
Cs      53.05122911      27.54537500      56.31835490
Cs      58.26832911      27.54537500      59.12814510
Cs      61.72497089      25.15012500      68.00864510
Cs      56.50787089      29.94062500      11.91585490
Cs      53.05122911      32.33587500       3.03535490
Cs      58.26832911      32.33587500       5.84514510
Cs      61.72497089      29.94062500      14.72564510
Cs      56.50787089      29.94062500      29.67685490
Cs      53.05122911      32.33587500      20.79635490
Cs      58.26832911      32.33587500      23.60614510
Cs      61.72497089      29.94062500      32.48664510
Cs      56.50787089      29.94062500      47.43785490
Cs      53.05122911      32.33587500      38.55735490
Cs      58.26832911      32.33587500      41.36714510
Cs      61.72497089      29.94062500      50.24764510
Cs      56.50787089      29.94062500      65.19885490
Cs      53.05122911      32.33587500      56.31835490
Cs      58.26832911      32.33587500      59.12814510
Cs      61.72497089      29.94062500      68.00864510
Cs      56.50787089      34.73112500      11.91585490
Cs      53.05122911      37.12637500       3.03535490
Cs      58.26832911      37.12637500       5.84514510
Cs      61.72497089      34.73112500      14.72564510
Cs      56.50787089      34.73112500      29.67685490
Cs      53.05122911      37.12637500      20.79635490
Cs      58.26832911      37.12637500      23.60614510
Cs      61.72497089      34.73112500      32.48664510
Cs      56.50787089      34.73112500      47.43785490
Cs      53.05122911      37.12637500      38.55735490
Cs      58.26832911      37.12637500      41.36714510
Cs      61.72497089      34.73112500      50.24764510
Cs      56.50787089      34.73112500      65.19885490
Cs      53.05122911      37.12637500      56.31835490
Cs      58.26832911      37.12637500      59.12814510
Cs      61.72497089      34.73112500      68.00864510
Cs      56.50787089      39.52162500      11.91585490
Cs      53.05122911      41.91687500       3.03535490
Cs      58.26832911      41.91687500       5.84514510
Cs      61.72497089      39.52162500      14.72564510
Cs      56.50787089      39.52162500      29.67685490
Cs      53.05122911      41.91687500      20.79635490
Cs      58.26832911      41.91687500      23.60614510
Cs      61.72497089      39.52162500      32.48664510
Cs      56.50787089      39.52162500      47.43785490
Cs      53.05122911      41.91687500      38.55735490
Cs      58.26832911      41.91687500      41.36714510
Cs      61.72497089      39.52162500      50.24764510
Cs      56.50787089      39.52162500      65.19885490
Cs      53.05122911      41.91687500      56.31835490
Cs      58.26832911      41.91687500      59.12814510
Cs      61.72497089      39.52162500      68.00864510
Cs      56.50787089      44.31212500      11.91585490
Cs      53.05122911      46.70737500       3.03535490
Cs      58.26832911      46.70737500       5.84514510
Cs      61.72497089      44.31212500      14.72564510
Cs      56.50787089      44.31212500      29.67685490
Cs      53.05122911      46.70737500      20.79635490
Cs      58.26832911      46.70737500      23.60614510
Cs      61.72497089      44.31212500      32.48664510
Cs      56.50787089      44.31212500      47.43785490
Cs      53.05122911      46.70737500      38.55735490
Cs      58.26832911      46.70737500      41.36714510
Cs      61.72497089      44.31212500      50.24764510
Cs      56.50787089      44.31212500      65.19885490
Cs      53.05122911      46.70737500      56.31835490
Cs      58.26832911      46.70737500      59.12814510
Cs      61.72497089      44.31212500      68.00864510
Cs      56.50787089      49.10262500      11.91585490
Cs      53.05122911      51.49787500       3.03535490
Cs      58.26832911      51.49787500       5.84514510
Cs      61.72497089      49.10262500      14.72564510
Cs      56.50787089      49.10262500      29.67685490
Cs      53.05122911      51.49787500      20.79635490
Cs      58.26832911      51.49787500      23.60614510
Cs      61.72497089      49.10262500      32.48664510
Cs      56.50787089      49.10262500      47.43785490
Cs      53.05122911      51.49787500      38.55735490
Cs      58.26832911      51.49787500      41.36714510
Cs      61.72497089      49.10262500      50.24764510
Cs      56.50787089      49.10262500      65.19885490
Cs      53.05122911      51.49787500      56.31835490
Cs      58.26832911      51.49787500      59.12814510
Cs      61.72497089      49.10262500      68.00864510
Cs      56.50787089      53.89312500      11.91585490
Cs      53.05122911      56.28837500       3.03535490
Cs      58.26832911      56.28837500       5.84514510
Cs      61.72497089      53.89312500      14.72564510
Cs      56.50787089      53.89312500      29.67685490
Cs      53.05122911      56.28837500      20.79635490
Cs      58.26832911      56.28837500      23.60614510
Cs      61.72497089      53.89312500      32.48664510
Cs      56.50787089      53.89312500      47.43785490
Cs      53.05122911      56.28837500      38.55735490
Cs      58.26832911      56.28837500      41.36714510
Cs      61.72497089      53.89312500      50.24764510
Cs      56.50787089      53.89312500      65.19885490
Cs      53.05122911      56.28837500      56.31835490
Cs      58.26832911      56.28837500      59.12814510
Cs      61.72497089      53.89312500      68.00864510
Cs      56.50787089      58.68362500      11.91585490
Cs      53.05122911      61.07887500       3.03535490
Cs      58.26832911      61.07887500       5.84514510
Cs      61.72497089      58.68362500      14.72564510
Cs      56.50787089      58.68362500      29.67685490
Cs      53.05122911      61.07887500      20.79635490
Cs      58.26832911      61.07887500      23.60614510
Cs      61.72497089      58.68362500      32.48664510
Cs      56.50787089      58.68362500      47.43785490
Cs      53.05122911      61.07887500      38.55735490
Cs      58.26832911      61.07887500      41.36714510
Cs      61.72497089      58.68362500      50.24764510
Cs      56.50787089      58.68362500      65.19885490
Cs      53.05122911      61.07887500      56.31835490
Cs      58.26832911      61.07887500      59.12814510
Cs      61.72497089      58.68362500      68.00864510
Cs      56.50787089      63.47412500      11.91585490
Cs      53.05122911      65.86937500       3.03535490
Cs      58.26832911      65.86937500       5.84514510
Cs      61.72497089      63.47412500      14.72564510
Cs      56.50787089      63.47412500      29.67685490
Cs      53.05122911      65.86937500      20.79635490
Cs      58.26832911      65.86937500      23.60614510
Cs      61.72497089      63.47412500      32.48664510
Cs      56.50787089      63.47412500      47.43785490
Cs      53.05122911      65.86937500      38.55735490
Cs      58.26832911      65.86937500      41.36714510
Cs      61.72497089      63.47412500      50.24764510
Cs      56.50787089      63.47412500      65.19885490
Cs      53.05122911      65.86937500      56.31835490
Cs      58.26832911      65.86937500      59.12814510
Cs      61.72497089      63.47412500      68.00864510
Cs      56.50787089      68.26462500      11.91585490
Cs      53.05122911      70.65987500       3.03535490
Cs      58.26832911      70.65987500       5.84514510
Cs      61.72497089      68.26462500      14.72564510
Cs      56.50787089      68.26462500      29.67685490
Cs      53.05122911      70.65987500      20.79635490
Cs      58.26832911      70.65987500      23.60614510
Cs      61.72497089      68.26462500      32.48664510
Cs      56.50787089      68.26462500      47.43785490
Cs      53.05122911      70.65987500      38.55735490
Cs      58.26832911      70.65987500      41.36714510
Cs      61.72497089      68.26462500      50.24764510
Cs      56.50787089      68.26462500      65.19885490
Cs      53.05122911      70.65987500      56.31835490
Cs      58.26832911      70.65987500      59.12814510
Cs      61.72497089      68.26462500      68.00864510
Cs      56.50787089      73.05512500      11.91585490
Cs      53.05122911      75.45037500       3.03535490
Cs      58.26832911      75.45037500       5.84514510
Cs      61.72497089      73.05512500      14.72564510
Cs      56.50787089      73.05512500      29.67685490
Cs      53.05122911      75.45037500      20.79635490
Cs      58.26832911      75.45037500      23.60614510
Cs      61.72497089      73.05512500      32.48664510
Cs      56.50787089      73.05512500      47.43785490
Cs      53.05122911      75.45037500      38.55735490
Cs      58.26832911      75.45037500      41.36714510
Cs      61.72497089      73.05512500      50.24764510
Cs      56.50787089      73.05512500      65.19885490
Cs      53.05122911      75.45037500      56.31835490
Cs      58.26832911      75.45037500      59.12814510
Cs      61.72497089      73.05512500      68.00864510
Cs      56.50787089      77.84562500      11.91585490
Cs      53.05122911      80.24087500       3.03535490
Cs      58.26832911      80.24087500       5.84514510
Cs      61.72497089      77.84562500      14.72564510
Cs      56.50787089      77.84562500      29.67685490
Cs      53.05122911      80.24087500      20.79635490
Cs      58.26832911      80.24087500      23.60614510
Cs      61.72497089      77.84562500      32.48664510
Cs      56.50787089      77.84562500      47.43785490
Cs      53.05122911      80.24087500      38.55735490
Cs      58.26832911      80.24087500      41.36714510
Cs      61.72497089      77.84562500      50.24764510
Cs      56.50787089      77.84562500      65.19885490
Cs      53.05122911      80.24087500      56.31835490
Cs      58.26832911      80.24087500      59.12814510
Cs      61.72497089      77.84562500      68.00864510
Cs      56.50787089      82.63612500      11.91585490
Cs      53.05122911      85.03137500       3.03535490
Cs      58.26832911      85.03137500       5.84514510
Cs      61.72497089      82.63612500      14.72564510
Cs      56.50787089      82.63612500      29.67685490
Cs      53.05122911      85.03137500      20.79635490
Cs      58.26832911      85.03137500      23.60614510
Cs      61.72497089      82.63612500      32.48664510
Cs      56.50787089      82.63612500      47.43785490
Cs      53.05122911      85.03137500      38.55735490
Cs      58.26832911      85.03137500      41.36714510
Cs      61.72497089      82.63612500      50.24764510
Cs      56.50787089      82.63612500      65.19885490
Cs      53.05122911      85.03137500      56.31835490
Cs      58.26832911      85.03137500      59.12814510
Cs      61.72497089      82.63612500      68.00864510
Pb       1.67354134       1.19762500       7.77878517
Pb       3.54355866       3.59287500      16.65928517
Pb       8.76065866       3.59287500       9.98221483
Pb       6.89064134       1.19762500       1.10171483
Pb       1.67354134       1.19762500      25.53978517
Pb       3.54355866       3.59287500      34.42028517
Pb       8.76065866       3.59287500      27.74321483
Pb       6.89064134       1.19762500      18.86271483
Pb       1.67354134       1.19762500      43.30078517
Pb       3.54355866       3.59287500      52.18128517
Pb       8.76065866       3.59287500      45.50421483
Pb       6.89064134       1.19762500      36.62371483
Pb       1.67354134       1.19762500      61.06178517
Pb       3.54355866       3.59287500      69.94228517
Pb       8.76065866       3.59287500      63.26521483
Pb       6.89064134       1.19762500      54.38471483
Pb       1.67354134       5.98812500       7.77878517
Pb       3.54355866       8.38337500      16.65928517
Pb       8.76065866       8.38337500       9.98221483
Pb       6.89064134       5.98812500       1.10171483
Pb       1.67354134       5.98812500      25.53978517
Pb       3.54355866       8.38337500      34.42028517
Pb       8.76065866       8.38337500      27.74321483
Pb       6.89064134       5.98812500      18.86271483
Pb       1.67354134       5.98812500      43.30078517
Pb       3.54355866       8.38337500      52.18128517
Pb       8.76065866       8.38337500      45.50421483
Pb       6.89064134       5.98812500      36.62371483
Pb       1.67354134       5.98812500      61.06178517
Pb       3.54355866       8.38337500      69.94228517
Pb       8.76065866       8.38337500      63.26521483
Pb       6.89064134       5.98812500      54.38471483
Pb       1.67354134      10.77862500       7.77878517
Pb       3.54355866      13.17387500      16.65928517
Pb       8.76065866      13.17387500       9.98221483
Pb       6.89064134      10.77862500       1.10171483
Pb       1.67354134      10.77862500      25.53978517
Pb       3.54355866      13.17387500      34.42028517
Pb       8.76065866      13.17387500      27.74321483
Pb       6.89064134      10.77862500      18.86271483
Pb       1.67354134      10.77862500      43.30078517
Pb       3.54355866      13.17387500      52.18128517
Pb       8.76065866      13.17387500      45.50421483
Pb       6.89064134      10.77862500      36.62371483
Pb       1.67354134      10.77862500      61.06178517
Pb       3.54355866      13.17387500      69.94228517
Pb       8.76065866      13.17387500      63.26521483
Pb       6.89064134      10.77862500      54.38471483
Pb       1.67354134      15.56912500       7.77878517
Pb       3.54355866      17.96437500      16.65928517
Pb       8.76065866      17.96437500       9.98221483
Pb       6.89064134      15.56912500       1.10171483
Pb       1.67354134      15.56912500      25.53978517
Pb       3.54355866      17.96437500      34.42028517
Pb       8.76065866      17.96437500      27.74321483
Pb       6.89064134      15.56912500      18.86271483
Pb       1.67354134      15.56912500      43.30078517
Pb       3.54355866      17.96437500      52.18128517
Pb       8.76065866      17.96437500      45.50421483
Pb       6.89064134      15.56912500      36.62371483
Pb       1.67354134      15.56912500      61.06178517
Pb       3.54355866      17.96437500      69.94228517
Pb       8.76065866      17.96437500      63.26521483
Pb       6.89064134      15.56912500      54.38471483
Pb       1.67354134      20.35962500       7.77878517
Pb       3.54355866      22.75487500      16.65928517
Pb       8.76065866      22.75487500       9.98221483
Pb       6.89064134      20.35962500       1.10171483
Pb       1.67354134      20.35962500      25.53978517
Pb       3.54355866      22.75487500      34.42028517
Pb       8.76065866      22.75487500      27.74321483
Pb       6.89064134      20.35962500      18.86271483
Pb       1.67354134      20.35962500      43.30078517
Pb       3.54355866      22.75487500      52.18128517
Pb       8.76065866      22.75487500      45.50421483
Pb       6.89064134      20.35962500      36.62371483
Pb       1.67354134      20.35962500      61.06178517
Pb       3.54355866      22.75487500      69.94228517
Pb       8.76065866      22.75487500      63.26521483
Pb       6.89064134      20.35962500      54.38471483
Pb       1.67354134      25.15012500       7.77878517
Pb       3.54355866      27.54537500      16.65928517
Pb       8.76065866      27.54537500       9.98221483
Pb       6.89064134      25.15012500       1.10171483
Pb       1.67354134      25.15012500      25.53978517
Pb       3.54355866      27.54537500      34.42028517
Pb       8.76065866      27.54537500      27.74321483
Pb       6.89064134      25.15012500      18.86271483
Pb       1.67354134      25.15012500      43.30078517
Pb       3.54355866      27.54537500      52.18128517
Pb       8.76065866      27.54537500      45.50421483
Pb       6.89064134      25.15012500      36.62371483
Pb       1.67354134      25.15012500      61.06178517
Pb       3.54355866      27.54537500      69.94228517
Pb       8.76065866      27.54537500      63.26521483
Pb       6.89064134      25.15012500      54.38471483
Pb       1.67354134      29.94062500       7.77878517
Pb       3.54355866      32.33587500      16.65928517
Pb       8.76065866      32.33587500       9.98221483
Pb       6.89064134      29.94062500       1.10171483
Pb       1.67354134      29.94062500      25.53978517
Pb       3.54355866      32.33587500      34.42028517
Pb       8.76065866      32.33587500      27.74321483
Pb       6.89064134      29.94062500      18.86271483
Pb       1.67354134      29.94062500      43.30078517
Pb       3.54355866      32.33587500      52.18128517
Pb       8.76065866      32.33587500      45.50421483
Pb       6.89064134      29.94062500      36.62371483
Pb       1.67354134      29.94062500      61.06178517
Pb       3.54355866      32.33587500      69.94228517
Pb       8.76065866      32.33587500      63.26521483
Pb       6.89064134      29.94062500      54.38471483
Pb       1.67354134      34.73112500       7.77878517
Pb       3.54355866      37.12637500      16.65928517
Pb       8.76065866      37.12637500       9.98221483
Pb       6.89064134      34.73112500       1.10171483
Pb       1.67354134      34.73112500      25.53978517
Pb       3.54355866      37.12637500      34.42028517
Pb       8.76065866      37.12637500      27.74321483
Pb       6.89064134      34.73112500      18.86271483
Pb       1.67354134      34.73112500      43.30078517
Pb       3.54355866      37.12637500      52.18128517
Pb       8.76065866      37.12637500      45.50421483
Pb       6.89064134      34.73112500      36.62371483
Pb       1.67354134      34.73112500      61.06178517
Pb       3.54355866      37.12637500      69.94228517
Pb       8.76065866      37.12637500      63.26521483
Pb       6.89064134      34.73112500      54.38471483
Pb       1.67354134      39.52162500       7.77878517
Pb       3.54355866      41.91687500      16.65928517
Pb       8.76065866      41.91687500       9.98221483
Pb       6.89064134      39.52162500       1.10171483
Pb       1.67354134      39.52162500      25.53978517
Pb       3.54355866      41.91687500      34.42028517
Pb       8.76065866      41.91687500      27.74321483
Pb       6.89064134      39.52162500      18.86271483
Pb       1.67354134      39.52162500      43.30078517
Pb       3.54355866      41.91687500      52.18128517
Pb       8.76065866      41.91687500      45.50421483
Pb       6.89064134      39.52162500      36.62371483
Pb       1.67354134      39.52162500      61.06178517
Pb       3.54355866      41.91687500      69.94228517
Pb       8.76065866      41.91687500      63.26521483
Pb       6.89064134      39.52162500      54.38471483
Pb       1.67354134      44.31212500       7.77878517
Pb       3.54355866      46.70737500      16.65928517
Pb       8.76065866      46.70737500       9.98221483
Pb       6.89064134      44.31212500       1.10171483
Pb       1.67354134      44.31212500      25.53978517
Pb       3.54355866      46.70737500      34.42028517
Pb       8.76065866      46.70737500      27.74321483
Pb       6.89064134      44.31212500      18.86271483
Pb       1.67354134      44.31212500      43.30078517
Pb       3.54355866      46.70737500      52.18128517
Pb       8.76065866      46.70737500      45.50421483
Pb       6.89064134      44.31212500      36.62371483
Pb       1.67354134      44.31212500      61.06178517
Pb       3.54355866      46.70737500      69.94228517
Pb       8.76065866      46.70737500      63.26521483
Pb       6.89064134      44.31212500      54.38471483
Pb       1.67354134      49.10262500       7.77878517
Pb       3.54355866      51.49787500      16.65928517
Pb       8.76065866      51.49787500       9.98221483
Pb       6.89064134      49.10262500       1.10171483
Pb       1.67354134      49.10262500      25.53978517
Pb       3.54355866      51.49787500      34.42028517
Pb       8.76065866      51.49787500      27.74321483
Pb       6.89064134      49.10262500      18.86271483
Pb       1.67354134      49.10262500      43.30078517
Pb       3.54355866      51.49787500      52.18128517
Pb       8.76065866      51.49787500      45.50421483
Pb       6.89064134      49.10262500      36.62371483
Pb       1.67354134      49.10262500      61.06178517
Pb       3.54355866      51.49787500      69.94228517
Pb       8.76065866      51.49787500      63.26521483
Pb       6.89064134      49.10262500      54.38471483
Pb       1.67354134      53.89312500       7.77878517
Pb       3.54355866      56.28837500      16.65928517
Pb       8.76065866      56.28837500       9.98221483
Pb       6.89064134      53.89312500       1.10171483
Pb       1.67354134      53.89312500      25.53978517
Pb       3.54355866      56.28837500      34.42028517
Pb       8.76065866      56.28837500      27.74321483
Pb       6.89064134      53.89312500      18.86271483
Pb       1.67354134      53.89312500      43.30078517
Pb       3.54355866      56.28837500      52.18128517
Pb       8.76065866      56.28837500      45.50421483
Pb       6.89064134      53.89312500      36.62371483
Pb       1.67354134      53.89312500      61.06178517
Pb       3.54355866      56.28837500      69.94228517
Pb       8.76065866      56.28837500      63.26521483
Pb       6.89064134      53.89312500      54.38471483
Pb       1.67354134      58.68362500       7.77878517
Pb       3.54355866      61.07887500      16.65928517
Pb       8.76065866      61.07887500       9.98221483
Pb       6.89064134      58.68362500       1.10171483
Pb       1.67354134      58.68362500      25.53978517
Pb       3.54355866      61.07887500      34.42028517
Pb       8.76065866      61.07887500      27.74321483
Pb       6.89064134      58.68362500      18.86271483
Pb       1.67354134      58.68362500      43.30078517
Pb       3.54355866      61.07887500      52.18128517
Pb       8.76065866      61.07887500      45.50421483
Pb       6.89064134      58.68362500      36.62371483
Pb       1.67354134      58.68362500      61.06178517
Pb       3.54355866      61.07887500      69.94228517
Pb       8.76065866      61.07887500      63.26521483
Pb       6.89064134      58.68362500      54.38471483
Pb       1.67354134      63.47412500       7.77878517
Pb       3.54355866      65.86937500      16.65928517
Pb       8.76065866      65.86937500       9.98221483
Pb       6.89064134      63.47412500       1.10171483
Pb       1.67354134      63.47412500      25.53978517
Pb       3.54355866      65.86937500      34.42028517
Pb       8.76065866      65.86937500      27.74321483
Pb       6.89064134      63.47412500      18.86271483
Pb       1.67354134      63.47412500      43.30078517
Pb       3.54355866      65.86937500      52.18128517
Pb       8.76065866      65.86937500      45.50421483
Pb       6.89064134      63.47412500      36.62371483
Pb       1.67354134      63.47412500      61.06178517
Pb       3.54355866      65.86937500      69.94228517
Pb       8.76065866      65.86937500      63.26521483
Pb       6.89064134      63.47412500      54.38471483
Pb       1.67354134      68.26462500       7.77878517
Pb       3.54355866      70.65987500      16.65928517
Pb       8.76065866      70.65987500       9.98221483
Pb       6.89064134      68.26462500       1.10171483
Pb       1.67354134      68.26462500      25.53978517
Pb       3.54355866      70.65987500      34.42028517
Pb       8.76065866      70.65987500      27.74321483
Pb       6.89064134      68.26462500      18.86271483
Pb       1.67354134      68.26462500      43.30078517
Pb       3.54355866      70.65987500      52.18128517
Pb       8.76065866      70.65987500      45.50421483
Pb       6.89064134      68.26462500      36.62371483
Pb       1.67354134      68.26462500      61.06178517
Pb       3.54355866      70.65987500      69.94228517
Pb       8.76065866      70.65987500      63.26521483
Pb       6.89064134      68.26462500      54.38471483
Pb       1.67354134      73.05512500       7.77878517
Pb       3.54355866      75.45037500      16.65928517
Pb       8.76065866      75.45037500       9.98221483
Pb       6.89064134      73.05512500       1.10171483
Pb       1.67354134      73.05512500      25.53978517
Pb       3.54355866      75.45037500      34.42028517
Pb       8.76065866      75.45037500      27.74321483
Pb       6.89064134      73.05512500      18.86271483
Pb       1.67354134      73.05512500      43.30078517
Pb       3.54355866      75.45037500      52.18128517
Pb       8.76065866      75.45037500      45.50421483
Pb       6.89064134      73.05512500      36.62371483
Pb       1.67354134      73.05512500      61.06178517
Pb       3.54355866      75.45037500      69.94228517
Pb       8.76065866      75.45037500      63.26521483
Pb       6.89064134      73.05512500      54.38471483
Pb       1.67354134      77.84562500       7.77878517
Pb       3.54355866      80.24087500      16.65928517
Pb       8.76065866      80.24087500       9.98221483
Pb       6.89064134      77.84562500       1.10171483
Pb       1.67354134      77.84562500      25.53978517
Pb       3.54355866      80.24087500      34.42028517
Pb       8.76065866      80.24087500      27.74321483
Pb       6.89064134      77.84562500      18.86271483
Pb       1.67354134      77.84562500      43.30078517
Pb       3.54355866      80.24087500      52.18128517
Pb       8.76065866      80.24087500      45.50421483
Pb       6.89064134      77.84562500      36.62371483
Pb       1.67354134      77.84562500      61.06178517
Pb       3.54355866      80.24087500      69.94228517
Pb       8.76065866      80.24087500      63.26521483
Pb       6.89064134      77.84562500      54.38471483
Pb       1.67354134      82.63612500       7.77878517
Pb       3.54355866      85.03137500      16.65928517
Pb       8.76065866      85.03137500       9.98221483
Pb       6.89064134      82.63612500       1.10171483
Pb       1.67354134      82.63612500      25.53978517
Pb       3.54355866      85.03137500      34.42028517
Pb       8.76065866      85.03137500      27.74321483
Pb       6.89064134      82.63612500      18.86271483
Pb       1.67354134      82.63612500      43.30078517
Pb       3.54355866      85.03137500      52.18128517
Pb       8.76065866      85.03137500      45.50421483
Pb       6.89064134      82.63612500      36.62371483
Pb       1.67354134      82.63612500      61.06178517
Pb       3.54355866      85.03137500      69.94228517
Pb       8.76065866      85.03137500      63.26521483
Pb       6.89064134      82.63612500      54.38471483
Pb      12.10774134       1.19762500       7.77878517
Pb      13.97775866       3.59287500      16.65928517
Pb      19.19485866       3.59287500       9.98221483
Pb      17.32484134       1.19762500       1.10171483
Pb      12.10774134       1.19762500      25.53978517
Pb      13.97775866       3.59287500      34.42028517
Pb      19.19485866       3.59287500      27.74321483
Pb      17.32484134       1.19762500      18.86271483
Pb      12.10774134       1.19762500      43.30078517
Pb      13.97775866       3.59287500      52.18128517
Pb      19.19485866       3.59287500      45.50421483
Pb      17.32484134       1.19762500      36.62371483
Pb      12.10774134       1.19762500      61.06178517
Pb      13.97775866       3.59287500      69.94228517
Pb      19.19485866       3.59287500      63.26521483
Pb      17.32484134       1.19762500      54.38471483
Pb      12.10774134       5.98812500       7.77878517
Pb      13.97775866       8.38337500      16.65928517
Pb      19.19485866       8.38337500       9.98221483
Pb      17.32484134       5.98812500       1.10171483
Pb      12.10774134       5.98812500      25.53978517
Pb      13.97775866       8.38337500      34.42028517
Pb      19.19485866       8.38337500      27.74321483
Pb      17.32484134       5.98812500      18.86271483
Pb      12.10774134       5.98812500      43.30078517
Pb      13.97775866       8.38337500      52.18128517
Pb      19.19485866       8.38337500      45.50421483
Pb      17.32484134       5.98812500      36.62371483
Pb      12.10774134       5.98812500      61.06178517
Pb      13.97775866       8.38337500      69.94228517
Pb      19.19485866       8.38337500      63.26521483
Pb      17.32484134       5.98812500      54.38471483
Pb      12.10774134      10.77862500       7.77878517
Pb      13.97775866      13.17387500      16.65928517
Pb      19.19485866      13.17387500       9.98221483
Pb      17.32484134      10.77862500       1.10171483
Pb      12.10774134      10.77862500      25.53978517
Pb      13.97775866      13.17387500      34.42028517
Pb      19.19485866      13.17387500      27.74321483
Pb      17.32484134      10.77862500      18.86271483
Pb      12.10774134      10.77862500      43.30078517
Pb      13.97775866      13.17387500      52.18128517
Pb      19.19485866      13.17387500      45.50421483
Pb      17.32484134      10.77862500      36.62371483
Pb      12.10774134      10.77862500      61.06178517
Pb      13.97775866      13.17387500      69.94228517
Pb      19.19485866      13.17387500      63.26521483
Pb      17.32484134      10.77862500      54.38471483
Pb      12.10774134      15.56912500       7.77878517
Pb      13.97775866      17.96437500      16.65928517
Pb      19.19485866      17.96437500       9.98221483
Pb      17.32484134      15.56912500       1.10171483
Pb      12.10774134      15.56912500      25.53978517
Pb      13.97775866      17.96437500      34.42028517
Pb      19.19485866      17.96437500      27.74321483
Pb      17.32484134      15.56912500      18.86271483
Pb      12.10774134      15.56912500      43.30078517
Pb      13.97775866      17.96437500      52.18128517
Pb      19.19485866      17.96437500      45.50421483
Pb      17.32484134      15.56912500      36.62371483
Pb      12.10774134      15.56912500      61.06178517
Pb      13.97775866      17.96437500      69.94228517
Pb      19.19485866      17.96437500      63.26521483
Pb      17.32484134      15.56912500      54.38471483
Pb      12.10774134      20.35962500       7.77878517
Pb      13.97775866      22.75487500      16.65928517
Pb      19.19485866      22.75487500       9.98221483
Pb      17.32484134      20.35962500       1.10171483
Pb      12.10774134      20.35962500      25.53978517
Pb      13.97775866      22.75487500      34.42028517
Pb      19.19485866      22.75487500      27.74321483
Pb      17.32484134      20.35962500      18.86271483
Pb      12.10774134      20.35962500      43.30078517
Pb      13.97775866      22.75487500      52.18128517
Pb      19.19485866      22.75487500      45.50421483
Pb      17.32484134      20.35962500      36.62371483
Pb      12.10774134      20.35962500      61.06178517
Pb      13.97775866      22.75487500      69.94228517
Pb      19.19485866      22.75487500      63.26521483
Pb      17.32484134      20.35962500      54.38471483
Pb      12.10774134      25.15012500       7.77878517
Pb      13.97775866      27.54537500      16.65928517
Pb      19.19485866      27.54537500       9.98221483
Pb      17.32484134      25.15012500       1.10171483
Pb      12.10774134      25.15012500      25.53978517
Pb      13.97775866      27.54537500      34.42028517
Pb      19.19485866      27.54537500      27.74321483
Pb      17.32484134      25.15012500      18.86271483
Pb      12.10774134      25.15012500      43.30078517
Pb      13.97775866      27.54537500      52.18128517
Pb      19.19485866      27.54537500      45.50421483
Pb      17.32484134      25.15012500      36.62371483
Pb      12.10774134      25.15012500      61.06178517
Pb      13.97775866      27.54537500      69.94228517
Pb      19.19485866      27.54537500      63.26521483
Pb      17.32484134      25.15012500      54.38471483
Pb      12.10774134      29.94062500       7.77878517
Pb      13.97775866      32.33587500      16.65928517
Pb      19.19485866      32.33587500       9.98221483
Pb      17.32484134      29.94062500       1.10171483
Pb      12.10774134      29.94062500      25.53978517
Pb      13.97775866      32.33587500      34.42028517
Pb      19.19485866      32.33587500      27.74321483
Pb      17.32484134      29.94062500      18.86271483
Pb      12.10774134      29.94062500      43.30078517
Pb      13.97775866      32.33587500      52.18128517
Pb      19.19485866      32.33587500      45.50421483
Pb      17.32484134      29.94062500      36.62371483
Pb      12.10774134      29.94062500      61.06178517
Pb      13.97775866      32.33587500      69.94228517
Pb      19.19485866      32.33587500      63.26521483
Pb      17.32484134      29.94062500      54.38471483
Pb      12.10774134      34.73112500       7.77878517
Pb      13.97775866      37.12637500      16.65928517
Pb      19.19485866      37.12637500       9.98221483
Pb      17.32484134      34.73112500       1.10171483
Pb      12.10774134      34.73112500      25.53978517
Pb      13.97775866      37.12637500      34.42028517
Pb      19.19485866      37.12637500      27.74321483
Pb      17.32484134      34.73112500      18.86271483
Pb      12.10774134      34.73112500      43.30078517
Pb      13.97775866      37.12637500      52.18128517
Pb      19.19485866      37.12637500      45.50421483
Pb      17.32484134      34.73112500      36.62371483
Pb      12.10774134      34.73112500      61.06178517
Pb      13.97775866      37.12637500      69.94228517
Pb      19.19485866      37.12637500      63.26521483
Pb      17.32484134      34.73112500      54.38471483
Pb      12.10774134      39.52162500       7.77878517
Pb      13.97775866      41.91687500      16.65928517
Pb      19.19485866      41.91687500       9.98221483
Pb      17.32484134      39.52162500       1.10171483
Pb      12.10774134      39.52162500      25.53978517
Pb      13.97775866      41.91687500      34.42028517
Pb      19.19485866      41.91687500      27.74321483
Pb      17.32484134      39.52162500      18.86271483
Pb      12.10774134      39.52162500      43.30078517
Pb      13.97775866      41.91687500      52.18128517
Pb      19.19485866      41.91687500      45.50421483
Pb      17.32484134      39.52162500      36.62371483
Pb      12.10774134      39.52162500      61.06178517
Pb      13.97775866      41.91687500      69.94228517
Pb      19.19485866      41.91687500      63.26521483
Pb      17.32484134      39.52162500      54.38471483
Pb      12.10774134      44.31212500       7.77878517
Pb      13.97775866      46.70737500      16.65928517
Pb      19.19485866      46.70737500       9.98221483
Pb      17.32484134      44.31212500       1.10171483
Pb      12.10774134      44.31212500      25.53978517
Pb      13.97775866      46.70737500      34.42028517
Pb      19.19485866      46.70737500      27.74321483
Pb      17.32484134      44.31212500      18.86271483
Pb      12.10774134      44.31212500      43.30078517
Pb      13.97775866      46.70737500      52.18128517
Pb      19.19485866      46.70737500      45.50421483
Pb      17.32484134      44.31212500      36.62371483
Pb      12.10774134      44.31212500      61.06178517
Pb      13.97775866      46.70737500      69.94228517
Pb      19.19485866      46.70737500      63.26521483
Pb      17.32484134      44.31212500      54.38471483
Pb      12.10774134      49.10262500       7.77878517
Pb      13.97775866      51.49787500      16.65928517
Pb      19.19485866      51.49787500       9.98221483
Pb      17.32484134      49.10262500       1.10171483
Pb      12.10774134      49.10262500      25.53978517
Pb      13.97775866      51.49787500      34.42028517
Pb      19.19485866      51.49787500      27.74321483
Pb      17.32484134      49.10262500      18.86271483
Pb      12.10774134      49.10262500      43.30078517
Pb      13.97775866      51.49787500      52.18128517
Pb      19.19485866      51.49787500      45.50421483
Pb      17.32484134      49.10262500      36.62371483
Pb      12.10774134      49.10262500      61.06178517
Pb      13.97775866      51.49787500      69.94228517
Pb      19.19485866      51.49787500      63.26521483
Pb      17.32484134      49.10262500      54.38471483
Pb      12.10774134      53.89312500       7.77878517
Pb      13.97775866      56.28837500      16.65928517
Pb      19.19485866      56.28837500       9.98221483
Pb      17.32484134      53.89312500       1.10171483
Pb      12.10774134      53.89312500      25.53978517
Pb      13.97775866      56.28837500      34.42028517
Pb      19.19485866      56.28837500      27.74321483
Pb      17.32484134      53.89312500      18.86271483
Pb      12.10774134      53.89312500      43.30078517
Pb      13.97775866      56.28837500      52.18128517
Pb      19.19485866      56.28837500      45.50421483
Pb      17.32484134      53.89312500      36.62371483
Pb      12.10774134      53.89312500      61.06178517
Pb      13.97775866      56.28837500      69.94228517
Pb      19.19485866      56.28837500      63.26521483
Pb      17.32484134      53.89312500      54.38471483
Pb      12.10774134      58.68362500       7.77878517
Pb      13.97775866      61.07887500      16.65928517
Pb      19.19485866      61.07887500       9.98221483
Pb      17.32484134      58.68362500       1.10171483
Pb      12.10774134      58.68362500      25.53978517
Pb      13.97775866      61.07887500      34.42028517
Pb      19.19485866      61.07887500      27.74321483
Pb      17.32484134      58.68362500      18.86271483
Pb      12.10774134      58.68362500      43.30078517
Pb      13.97775866      61.07887500      52.18128517
Pb      19.19485866      61.07887500      45.50421483
Pb      17.32484134      58.68362500      36.62371483
Pb      12.10774134      58.68362500      61.06178517
Pb      13.97775866      61.07887500      69.94228517
Pb      19.19485866      61.07887500      63.26521483
Pb      17.32484134      58.68362500      54.38471483
Pb      12.10774134      63.47412500       7.77878517
Pb      13.97775866      65.86937500      16.65928517
Pb      19.19485866      65.86937500       9.98221483
Pb      17.32484134      63.47412500       1.10171483
Pb      12.10774134      63.47412500      25.53978517
Pb      13.97775866      65.86937500      34.42028517
Pb      19.19485866      65.86937500      27.74321483
Pb      17.32484134      63.47412500      18.86271483
Pb      12.10774134      63.47412500      43.30078517
Pb      13.97775866      65.86937500      52.18128517
Pb      19.19485866      65.86937500      45.50421483
Pb      17.32484134      63.47412500      36.62371483
Pb      12.10774134      63.47412500      61.06178517
Pb      13.97775866      65.86937500      69.94228517
Pb      19.19485866      65.86937500      63.26521483
Pb      17.32484134      63.47412500      54.38471483
Pb      12.10774134      68.26462500       7.77878517
Pb      13.97775866      70.65987500      16.65928517
Pb      19.19485866      70.65987500       9.98221483
Pb      17.32484134      68.26462500       1.10171483
Pb      12.10774134      68.26462500      25.53978517
Pb      13.97775866      70.65987500      34.42028517
Pb      19.19485866      70.65987500      27.74321483
Pb      17.32484134      68.26462500      18.86271483
Pb      12.10774134      68.26462500      43.30078517
Pb      13.97775866      70.65987500      52.18128517
Pb      19.19485866      70.65987500      45.50421483
Pb      17.32484134      68.26462500      36.62371483
Pb      12.10774134      68.26462500      61.06178517
Pb      13.97775866      70.65987500      69.94228517
Pb      19.19485866      70.65987500      63.26521483
Pb      17.32484134      68.26462500      54.38471483
Pb      12.10774134      73.05512500       7.77878517
Pb      13.97775866      75.45037500      16.65928517
Pb      19.19485866      75.45037500       9.98221483
Pb      17.32484134      73.05512500       1.10171483
Pb      12.10774134      73.05512500      25.53978517
Pb      13.97775866      75.45037500      34.42028517
Pb      19.19485866      75.45037500      27.74321483
Pb      17.32484134      73.05512500      18.86271483
Pb      12.10774134      73.05512500      43.30078517
Pb      13.97775866      75.45037500      52.18128517
Pb      19.19485866      75.45037500      45.50421483
Pb      17.32484134      73.05512500      36.62371483
Pb      12.10774134      73.05512500      61.06178517
Pb      13.97775866      75.45037500      69.94228517
Pb      19.19485866      75.45037500      63.26521483
Pb      17.32484134      73.05512500      54.38471483
Pb      12.10774134      77.84562500       7.77878517
Pb      13.97775866      80.24087500      16.65928517
Pb      19.19485866      80.24087500       9.98221483
Pb      17.32484134      77.84562500       1.10171483
Pb      12.10774134      77.84562500      25.53978517
Pb      13.97775866      80.24087500      34.42028517
Pb      19.19485866      80.24087500      27.74321483
Pb      17.32484134      77.84562500      18.86271483
Pb      12.10774134      77.84562500      43.30078517
Pb      13.97775866      80.24087500      52.18128517
Pb      19.19485866      80.24087500      45.50421483
Pb      17.32484134      77.84562500      36.62371483
Pb      12.10774134      77.84562500      61.06178517
Pb      13.97775866      80.24087500      69.94228517
Pb      19.19485866      80.24087500      63.26521483
Pb      17.32484134      77.84562500      54.38471483
Pb      12.10774134      82.63612500       7.77878517
Pb      13.97775866      85.03137500      16.65928517
Pb      19.19485866      85.03137500       9.98221483
Pb      17.32484134      82.63612500       1.10171483
Pb      12.10774134      82.63612500      25.53978517
Pb      13.97775866      85.03137500      34.42028517
Pb      19.19485866      85.03137500      27.74321483
Pb      17.32484134      82.63612500      18.86271483
Pb      12.10774134      82.63612500      43.30078517
Pb      13.97775866      85.03137500      52.18128517
Pb      19.19485866      85.03137500      45.50421483
Pb      17.32484134      82.63612500      36.62371483
Pb      12.10774134      82.63612500      61.06178517
Pb      13.97775866      85.03137500      69.94228517
Pb      19.19485866      85.03137500      63.26521483
Pb      17.32484134      82.63612500      54.38471483
Pb      22.54194134       1.19762500       7.77878517
Pb      24.41195866       3.59287500      16.65928517
Pb      29.62905866       3.59287500       9.98221483
Pb      27.75904134       1.19762500       1.10171483
Pb      22.54194134       1.19762500      25.53978517
Pb      24.41195866       3.59287500      34.42028517
Pb      29.62905866       3.59287500      27.74321483
Pb      27.75904134       1.19762500      18.86271483
Pb      22.54194134       1.19762500      43.30078517
Pb      24.41195866       3.59287500      52.18128517
Pb      29.62905866       3.59287500      45.50421483
Pb      27.75904134       1.19762500      36.62371483
Pb      22.54194134       1.19762500      61.06178517
Pb      24.41195866       3.59287500      69.94228517
Pb      29.62905866       3.59287500      63.26521483
Pb      27.75904134       1.19762500      54.38471483
Pb      22.54194134       5.98812500       7.77878517
Pb      24.41195866       8.38337500      16.65928517
Pb      29.62905866       8.38337500       9.98221483
Pb      27.75904134       5.98812500       1.10171483
Pb      22.54194134       5.98812500      25.53978517
Pb      24.41195866       8.38337500      34.42028517
Pb      29.62905866       8.38337500      27.74321483
Pb      27.75904134       5.98812500      18.86271483
Pb      22.54194134       5.98812500      43.30078517
Pb      24.41195866       8.38337500      52.18128517
Pb      29.62905866       8.38337500      45.50421483
Pb      27.75904134       5.98812500      36.62371483
Pb      22.54194134       5.98812500      61.06178517
Pb      24.41195866       8.38337500      69.94228517
Pb      29.62905866       8.38337500      63.26521483
Pb      27.75904134       5.98812500      54.38471483
Pb      22.54194134      10.77862500       7.77878517
Pb      24.41195866      13.17387500      16.65928517
Pb      29.62905866      13.17387500       9.98221483
Pb      27.75904134      10.77862500       1.10171483
Pb      22.54194134      10.77862500      25.53978517
Pb      24.41195866      13.17387500      34.42028517
Pb      29.62905866      13.17387500      27.74321483
Pb      27.75904134      10.77862500      18.86271483
Pb      22.54194134      10.77862500      43.30078517
Pb      24.41195866      13.17387500      52.18128517
Pb      29.62905866      13.17387500      45.50421483
Pb      27.75904134      10.77862500      36.62371483
Pb      22.54194134      10.77862500      61.06178517
Pb      24.41195866      13.17387500      69.94228517
Pb      29.62905866      13.17387500      63.26521483
Pb      27.75904134      10.77862500      54.38471483
Pb      22.54194134      15.56912500       7.77878517
Pb      24.41195866      17.96437500      16.65928517
Pb      29.62905866      17.96437500       9.98221483
Pb      27.75904134      15.56912500       1.10171483
Pb      22.54194134      15.56912500      25.53978517
Pb      24.41195866      17.96437500      34.42028517
Pb      29.62905866      17.96437500      27.74321483
Pb      27.75904134      15.56912500      18.86271483
Pb      22.54194134      15.56912500      43.30078517
Pb      24.41195866      17.96437500      52.18128517
Pb      29.62905866      17.96437500      45.50421483
Pb      27.75904134      15.56912500      36.62371483
Pb      22.54194134      15.56912500      61.06178517
Pb      24.41195866      17.96437500      69.94228517
Pb      29.62905866      17.96437500      63.26521483
Pb      27.75904134      15.56912500      54.38471483
Pb      22.54194134      20.35962500       7.77878517
Pb      24.41195866      22.75487500      16.65928517
Pb      29.62905866      22.75487500       9.98221483
Pb      27.75904134      20.35962500       1.10171483
Pb      22.54194134      20.35962500      25.53978517
Pb      24.41195866      22.75487500      34.42028517
Pb      29.62905866      22.75487500      27.74321483
Pb      27.75904134      20.35962500      18.86271483
Pb      22.54194134      20.35962500      43.30078517
Pb      24.41195866      22.75487500      52.18128517
Pb      29.62905866      22.75487500      45.50421483
Pb      27.75904134      20.35962500      36.62371483
Pb      22.54194134      20.35962500      61.06178517
Pb      24.41195866      22.75487500      69.94228517
Pb      29.62905866      22.75487500      63.26521483
Pb      27.75904134      20.35962500      54.38471483
Pb      22.54194134      25.15012500       7.77878517
Pb      24.41195866      27.54537500      16.65928517
Pb      29.62905866      27.54537500       9.98221483
Pb      27.75904134      25.15012500       1.10171483
Pb      22.54194134      25.15012500      25.53978517
Pb      24.41195866      27.54537500      34.42028517
Pb      29.62905866      27.54537500      27.74321483
Pb      27.75904134      25.15012500      18.86271483
Pb      22.54194134      25.15012500      43.30078517
Pb      24.41195866      27.54537500      52.18128517
Pb      29.62905866      27.54537500      45.50421483
Pb      27.75904134      25.15012500      36.62371483
Pb      22.54194134      25.15012500      61.06178517
Pb      24.41195866      27.54537500      69.94228517
Pb      29.62905866      27.54537500      63.26521483
Pb      27.75904134      25.15012500      54.38471483
Pb      22.54194134      29.94062500       7.77878517
Pb      24.41195866      32.33587500      16.65928517
Pb      29.62905866      32.33587500       9.98221483
Pb      27.75904134      29.94062500       1.10171483
Pb      22.54194134      29.94062500      25.53978517
Pb      24.41195866      32.33587500      34.42028517
Pb      29.62905866      32.33587500      27.74321483
Pb      27.75904134      29.94062500      18.86271483
Pb      22.54194134      29.94062500      43.30078517
Pb      24.41195866      32.33587500      52.18128517
Pb      29.62905866      32.33587500      45.50421483
Pb      27.75904134      29.94062500      36.62371483
Pb      22.54194134      29.94062500      61.06178517
Pb      24.41195866      32.33587500      69.94228517
Pb      29.62905866      32.33587500      63.26521483
Pb      27.75904134      29.94062500      54.38471483
Pb      22.54194134      34.73112500       7.77878517
Pb      24.41195866      37.12637500      16.65928517
Pb      29.62905866      37.12637500       9.98221483
Pb      27.75904134      34.73112500       1.10171483
Pb      22.54194134      34.73112500      25.53978517
Pb      24.41195866      37.12637500      34.42028517
Pb      29.62905866      37.12637500      27.74321483
Pb      27.75904134      34.73112500      18.86271483
Pb      22.54194134      34.73112500      43.30078517
Pb      24.41195866      37.12637500      52.18128517
Pb      29.62905866      37.12637500      45.50421483
Pb      27.75904134      34.73112500      36.62371483
Pb      22.54194134      34.73112500      61.06178517
Pb      24.41195866      37.12637500      69.94228517
Pb      29.62905866      37.12637500      63.26521483
Pb      27.75904134      34.73112500      54.38471483
Pb      22.54194134      39.52162500       7.77878517
Pb      24.41195866      41.91687500      16.65928517
Pb      29.62905866      41.91687500       9.98221483
Pb      27.75904134      39.52162500       1.10171483
Pb      22.54194134      39.52162500      25.53978517
Pb      24.41195866      41.91687500      34.42028517
Pb      29.62905866      41.91687500      27.74321483
Pb      27.75904134      39.52162500      18.86271483
Pb      22.54194134      39.52162500      43.30078517
Pb      24.41195866      41.91687500      52.18128517
Pb      29.62905866      41.91687500      45.50421483
Pb      27.75904134      39.52162500      36.62371483
Pb      22.54194134      39.52162500      61.06178517
Pb      24.41195866      41.91687500      69.94228517
Pb      29.62905866      41.91687500      63.26521483
Pb      27.75904134      39.52162500      54.38471483
Pb      22.54194134      44.31212500       7.77878517
Pb      24.41195866      46.70737500      16.65928517
Pb      29.62905866      46.70737500       9.98221483
Pb      27.75904134      44.31212500       1.10171483
Pb      22.54194134      44.31212500      25.53978517
Pb      24.41195866      46.70737500      34.42028517
Pb      29.62905866      46.70737500      27.74321483
Pb      27.75904134      44.31212500      18.86271483
Pb      22.54194134      44.31212500      43.30078517
Pb      24.41195866      46.70737500      52.18128517
Pb      29.62905866      46.70737500      45.50421483
Pb      27.75904134      44.31212500      36.62371483
Pb      22.54194134      44.31212500      61.06178517
Pb      24.41195866      46.70737500      69.94228517
Pb      29.62905866      46.70737500      63.26521483
Pb      27.75904134      44.31212500      54.38471483
Pb      22.54194134      49.10262500       7.77878517
Pb      24.41195866      51.49787500      16.65928517
Pb      29.62905866      51.49787500       9.98221483
Pb      27.75904134      49.10262500       1.10171483
Pb      22.54194134      49.10262500      25.53978517
Pb      24.41195866      51.49787500      34.42028517
Pb      29.62905866      51.49787500      27.74321483
Pb      27.75904134      49.10262500      18.86271483
Pb      22.54194134      49.10262500      43.30078517
Pb      24.41195866      51.49787500      52.18128517
Pb      29.62905866      51.49787500      45.50421483
Pb      27.75904134      49.10262500      36.62371483
Pb      22.54194134      49.10262500      61.06178517
Pb      24.41195866      51.49787500      69.94228517
Pb      29.62905866      51.49787500      63.26521483
Pb      27.75904134      49.10262500      54.38471483
Pb      22.54194134      53.89312500       7.77878517
Pb      24.41195866      56.28837500      16.65928517
Pb      29.62905866      56.28837500       9.98221483
Pb      27.75904134      53.89312500       1.10171483
Pb      22.54194134      53.89312500      25.53978517
Pb      24.41195866      56.28837500      34.42028517
Pb      29.62905866      56.28837500      27.74321483
Pb      27.75904134      53.89312500      18.86271483
Pb      22.54194134      53.89312500      43.30078517
Pb      24.41195866      56.28837500      52.18128517
Pb      29.62905866      56.28837500      45.50421483
Pb      27.75904134      53.89312500      36.62371483
Pb      22.54194134      53.89312500      61.06178517
Pb      24.41195866      56.28837500      69.94228517
Pb      29.62905866      56.28837500      63.26521483
Pb      27.75904134      53.89312500      54.38471483
Pb      22.54194134      58.68362500       7.77878517
Pb      24.41195866      61.07887500      16.65928517
Pb      29.62905866      61.07887500       9.98221483
Pb      27.75904134      58.68362500       1.10171483
Pb      22.54194134      58.68362500      25.53978517
Pb      24.41195866      61.07887500      34.42028517
Pb      29.62905866      61.07887500      27.74321483
Pb      27.75904134      58.68362500      18.86271483
Pb      22.54194134      58.68362500      43.30078517
Pb      24.41195866      61.07887500      52.18128517
Pb      29.62905866      61.07887500      45.50421483
Pb      27.75904134      58.68362500      36.62371483
Pb      22.54194134      58.68362500      61.06178517
Pb      24.41195866      61.07887500      69.94228517
Pb      29.62905866      61.07887500      63.26521483
Pb      27.75904134      58.68362500      54.38471483
Pb      22.54194134      63.47412500       7.77878517
Pb      24.41195866      65.86937500      16.65928517
Pb      29.62905866      65.86937500       9.98221483
Pb      27.75904134      63.47412500       1.10171483
Pb      22.54194134      63.47412500      25.53978517
Pb      24.41195866      65.86937500      34.42028517
Pb      29.62905866      65.86937500      27.74321483
Pb      27.75904134      63.47412500      18.86271483
Pb      22.54194134      63.47412500      43.30078517
Pb      24.41195866      65.86937500      52.18128517
Pb      29.62905866      65.86937500      45.50421483
Pb      27.75904134      63.47412500      36.62371483
Pb      22.54194134      63.47412500      61.06178517
Pb      24.41195866      65.86937500      69.94228517
Pb      29.62905866      65.86937500      63.26521483
Pb      27.75904134      63.47412500      54.38471483
Pb      22.54194134      68.26462500       7.77878517
Pb      24.41195866      70.65987500      16.65928517
Pb      29.62905866      70.65987500       9.98221483
Pb      27.75904134      68.26462500       1.10171483
Pb      22.54194134      68.26462500      25.53978517
Pb      24.41195866      70.65987500      34.42028517
Pb      29.62905866      70.65987500      27.74321483
Pb      27.75904134      68.26462500      18.86271483
Pb      22.54194134      68.26462500      43.30078517
Pb      24.41195866      70.65987500      52.18128517
Pb      29.62905866      70.65987500      45.50421483
Pb      27.75904134      68.26462500      36.62371483
Pb      22.54194134      68.26462500      61.06178517
Pb      24.41195866      70.65987500      69.94228517
Pb      29.62905866      70.65987500      63.26521483
Pb      27.75904134      68.26462500      54.38471483
Pb      22.54194134      73.05512500       7.77878517
Pb      24.41195866      75.45037500      16.65928517
Pb      29.62905866      75.45037500       9.98221483
Pb      27.75904134      73.05512500       1.10171483
Pb      22.54194134      73.05512500      25.53978517
Pb      24.41195866      75.45037500      34.42028517
Pb      29.62905866      75.45037500      27.74321483
Pb      27.75904134      73.05512500      18.86271483
Pb      22.54194134      73.05512500      43.30078517
Pb      24.41195866      75.45037500      52.18128517
Pb      29.62905866      75.45037500      45.50421483
Pb      27.75904134      73.05512500      36.62371483
Pb      22.54194134      73.05512500      61.06178517
Pb      24.41195866      75.45037500      69.94228517
Pb      29.62905866      75.45037500      63.26521483
Pb      27.75904134      73.05512500      54.38471483
Pb      22.54194134      77.84562500       7.77878517
Pb      24.41195866      80.24087500      16.65928517
Pb      29.62905866      80.24087500       9.98221483
Pb      27.75904134      77.84562500       1.10171483
Pb      22.54194134      77.84562500      25.53978517
Pb      24.41195866      80.24087500      34.42028517
Pb      29.62905866      80.24087500      27.74321483
Pb      27.75904134      77.84562500      18.86271483
Pb      22.54194134      77.84562500      43.30078517
Pb      24.41195866      80.24087500      52.18128517
Pb      29.62905866      80.24087500      45.50421483
Pb      27.75904134      77.84562500      36.62371483
Pb      22.54194134      77.84562500      61.06178517
Pb      24.41195866      80.24087500      69.94228517
Pb      29.62905866      80.24087500      63.26521483
Pb      27.75904134      77.84562500      54.38471483
Pb      22.54194134      82.63612500       7.77878517
Pb      24.41195866      85.03137500      16.65928517
Pb      29.62905866      85.03137500       9.98221483
Pb      27.75904134      82.63612500       1.10171483
Pb      22.54194134      82.63612500      25.53978517
Pb      24.41195866      85.03137500      34.42028517
Pb      29.62905866      85.03137500      27.74321483
Pb      27.75904134      82.63612500      18.86271483
Pb      22.54194134      82.63612500      43.30078517
Pb      24.41195866      85.03137500      52.18128517
Pb      29.62905866      85.03137500      45.50421483
Pb      27.75904134      82.63612500      36.62371483
Pb      22.54194134      82.63612500      61.06178517
Pb      24.41195866      85.03137500      69.94228517
Pb      29.62905866      85.03137500      63.26521483
Pb      27.75904134      82.63612500      54.38471483
Pb      32.97614134       1.19762500       7.77878517
Pb      34.84615866       3.59287500      16.65928517
Pb      40.06325866       3.59287500       9.98221483
Pb      38.19324134       1.19762500       1.10171483
Pb      32.97614134       1.19762500      25.53978517
Pb      34.84615866       3.59287500      34.42028517
Pb      40.06325866       3.59287500      27.74321483
Pb      38.19324134       1.19762500      18.86271483
Pb      32.97614134       1.19762500      43.30078517
Pb      34.84615866       3.59287500      52.18128517
Pb      40.06325866       3.59287500      45.50421483
Pb      38.19324134       1.19762500      36.62371483
Pb      32.97614134       1.19762500      61.06178517
Pb      34.84615866       3.59287500      69.94228517
Pb      40.06325866       3.59287500      63.26521483
Pb      38.19324134       1.19762500      54.38471483
Pb      32.97614134       5.98812500       7.77878517
Pb      34.84615866       8.38337500      16.65928517
Pb      40.06325866       8.38337500       9.98221483
Pb      38.19324134       5.98812500       1.10171483
Pb      32.97614134       5.98812500      25.53978517
Pb      34.84615866       8.38337500      34.42028517
Pb      40.06325866       8.38337500      27.74321483
Pb      38.19324134       5.98812500      18.86271483
Pb      32.97614134       5.98812500      43.30078517
Pb      34.84615866       8.38337500      52.18128517
Pb      40.06325866       8.38337500      45.50421483
Pb      38.19324134       5.98812500      36.62371483
Pb      32.97614134       5.98812500      61.06178517
Pb      34.84615866       8.38337500      69.94228517
Pb      40.06325866       8.38337500      63.26521483
Pb      38.19324134       5.98812500      54.38471483
Pb      32.97614134      10.77862500       7.77878517
Pb      34.84615866      13.17387500      16.65928517
Pb      40.06325866      13.17387500       9.98221483
Pb      38.19324134      10.77862500       1.10171483
Pb      32.97614134      10.77862500      25.53978517
Pb      34.84615866      13.17387500      34.42028517
Pb      40.06325866      13.17387500      27.74321483
Pb      38.19324134      10.77862500      18.86271483
Pb      32.97614134      10.77862500      43.30078517
Pb      34.84615866      13.17387500      52.18128517
Pb      40.06325866      13.17387500      45.50421483
Pb      38.19324134      10.77862500      36.62371483
Pb      32.97614134      10.77862500      61.06178517
Pb      34.84615866      13.17387500      69.94228517
Pb      40.06325866      13.17387500      63.26521483
Pb      38.19324134      10.77862500      54.38471483
Pb      32.97614134      15.56912500       7.77878517
Pb      34.84615866      17.96437500      16.65928517
Pb      40.06325866      17.96437500       9.98221483
Pb      38.19324134      15.56912500       1.10171483
Pb      32.97614134      15.56912500      25.53978517
Pb      34.84615866      17.96437500      34.42028517
Pb      40.06325866      17.96437500      27.74321483
Pb      38.19324134      15.56912500      18.86271483
Pb      32.97614134      15.56912500      43.30078517
Pb      34.84615866      17.96437500      52.18128517
Pb      40.06325866      17.96437500      45.50421483
Pb      38.19324134      15.56912500      36.62371483
Pb      32.97614134      15.56912500      61.06178517
Pb      34.84615866      17.96437500      69.94228517
Pb      40.06325866      17.96437500      63.26521483
Pb      38.19324134      15.56912500      54.38471483
Pb      32.97614134      20.35962500       7.77878517
Pb      34.84615866      22.75487500      16.65928517
Pb      40.06325866      22.75487500       9.98221483
Pb      38.19324134      20.35962500       1.10171483
Pb      32.97614134      20.35962500      25.53978517
Pb      34.84615866      22.75487500      34.42028517
Pb      40.06325866      22.75487500      27.74321483
Pb      38.19324134      20.35962500      18.86271483
Pb      32.97614134      20.35962500      43.30078517
Pb      34.84615866      22.75487500      52.18128517
Pb      40.06325866      22.75487500      45.50421483
Pb      38.19324134      20.35962500      36.62371483
Pb      32.97614134      20.35962500      61.06178517
Pb      34.84615866      22.75487500      69.94228517
Pb      40.06325866      22.75487500      63.26521483
Pb      38.19324134      20.35962500      54.38471483
Pb      32.97614134      25.15012500       7.77878517
Pb      34.84615866      27.54537500      16.65928517
Pb      40.06325866      27.54537500       9.98221483
Pb      38.19324134      25.15012500       1.10171483
Pb      32.97614134      25.15012500      25.53978517
Pb      34.84615866      27.54537500      34.42028517
Pb      40.06325866      27.54537500      27.74321483
Pb      38.19324134      25.15012500      18.86271483
Pb      32.97614134      25.15012500      43.30078517
Pb      34.84615866      27.54537500      52.18128517
Pb      40.06325866      27.54537500      45.50421483
Pb      38.19324134      25.15012500      36.62371483
Pb      32.97614134      25.15012500      61.06178517
Pb      34.84615866      27.54537500      69.94228517
Pb      40.06325866      27.54537500      63.26521483
Pb      38.19324134      25.15012500      54.38471483
Pb      32.97614134      29.94062500       7.77878517
Pb      34.84615866      32.33587500      16.65928517
Pb      40.06325866      32.33587500       9.98221483
Pb      38.19324134      29.94062500       1.10171483
Pb      32.97614134      29.94062500      25.53978517
Pb      34.84615866      32.33587500      34.42028517
Pb      40.06325866      32.33587500      27.74321483
Pb      38.19324134      29.94062500      18.86271483
Pb      32.97614134      29.94062500      43.30078517
Pb      34.84615866      32.33587500      52.18128517
Pb      40.06325866      32.33587500      45.50421483
Pb      38.19324134      29.94062500      36.62371483
Pb      32.97614134      29.94062500      61.06178517
Pb      34.84615866      32.33587500      69.94228517
Pb      40.06325866      32.33587500      63.26521483
Pb      38.19324134      29.94062500      54.38471483
Pb      32.97614134      34.73112500       7.77878517
Pb      34.84615866      37.12637500      16.65928517
Pb      40.06325866      37.12637500       9.98221483
Pb      38.19324134      34.73112500       1.10171483
Pb      32.97614134      34.73112500      25.53978517
Pb      34.84615866      37.12637500      34.42028517
Pb      40.06325866      37.12637500      27.74321483
Pb      38.19324134      34.73112500      18.86271483
Pb      32.97614134      34.73112500      43.30078517
Pb      34.84615866      37.12637500      52.18128517
Pb      40.06325866      37.12637500      45.50421483
Pb      38.19324134      34.73112500      36.62371483
Pb      32.97614134      34.73112500      61.06178517
Pb      34.84615866      37.12637500      69.94228517
Pb      40.06325866      37.12637500      63.26521483
Pb      38.19324134      34.73112500      54.38471483
Pb      32.97614134      39.52162500       7.77878517
Pb      34.84615866      41.91687500      16.65928517
Pb      40.06325866      41.91687500       9.98221483
Pb      38.19324134      39.52162500       1.10171483
Pb      32.97614134      39.52162500      25.53978517
Pb      34.84615866      41.91687500      34.42028517
Pb      40.06325866      41.91687500      27.74321483
Pb      38.19324134      39.52162500      18.86271483
Pb      32.97614134      39.52162500      43.30078517
Pb      34.84615866      41.91687500      52.18128517
Pb      40.06325866      41.91687500      45.50421483
Pb      38.19324134      39.52162500      36.62371483
Pb      32.97614134      39.52162500      61.06178517
Pb      34.84615866      41.91687500      69.94228517
Pb      40.06325866      41.91687500      63.26521483
Pb      38.19324134      39.52162500      54.38471483
Pb      32.97614134      44.31212500       7.77878517
Pb      34.84615866      46.70737500      16.65928517
Pb      40.06325866      46.70737500       9.98221483
Pb      38.19324134      44.31212500       1.10171483
Pb      32.97614134      44.31212500      25.53978517
Pb      34.84615866      46.70737500      34.42028517
Pb      40.06325866      46.70737500      27.74321483
Pb      38.19324134      44.31212500      18.86271483
Pb      32.97614134      44.31212500      43.30078517
Pb      34.84615866      46.70737500      52.18128517
Pb      40.06325866      46.70737500      45.50421483
Pb      38.19324134      44.31212500      36.62371483
Pb      32.97614134      44.31212500      61.06178517
Pb      34.84615866      46.70737500      69.94228517
Pb      40.06325866      46.70737500      63.26521483
Pb      38.19324134      44.31212500      54.38471483
Pb      32.97614134      49.10262500       7.77878517
Pb      34.84615866      51.49787500      16.65928517
Pb      40.06325866      51.49787500       9.98221483
Pb      38.19324134      49.10262500       1.10171483
Pb      32.97614134      49.10262500      25.53978517
Pb      34.84615866      51.49787500      34.42028517
Pb      40.06325866      51.49787500      27.74321483
Pb      38.19324134      49.10262500      18.86271483
Pb      32.97614134      49.10262500      43.30078517
Pb      34.84615866      51.49787500      52.18128517
Pb      40.06325866      51.49787500      45.50421483
Pb      38.19324134      49.10262500      36.62371483
Pb      32.97614134      49.10262500      61.06178517
Pb      34.84615866      51.49787500      69.94228517
Pb      40.06325866      51.49787500      63.26521483
Pb      38.19324134      49.10262500      54.38471483
Pb      32.97614134      53.89312500       7.77878517
Pb      34.84615866      56.28837500      16.65928517
Pb      40.06325866      56.28837500       9.98221483
Pb      38.19324134      53.89312500       1.10171483
Pb      32.97614134      53.89312500      25.53978517
Pb      34.84615866      56.28837500      34.42028517
Pb      40.06325866      56.28837500      27.74321483
Pb      38.19324134      53.89312500      18.86271483
Pb      32.97614134      53.89312500      43.30078517
Pb      34.84615866      56.28837500      52.18128517
Pb      40.06325866      56.28837500      45.50421483
Pb      38.19324134      53.89312500      36.62371483
Pb      32.97614134      53.89312500      61.06178517
Pb      34.84615866      56.28837500      69.94228517
Pb      40.06325866      56.28837500      63.26521483
Pb      38.19324134      53.89312500      54.38471483
Pb      32.97614134      58.68362500       7.77878517
Pb      34.84615866      61.07887500      16.65928517
Pb      40.06325866      61.07887500       9.98221483
Pb      38.19324134      58.68362500       1.10171483
Pb      32.97614134      58.68362500      25.53978517
Pb      34.84615866      61.07887500      34.42028517
Pb      40.06325866      61.07887500      27.74321483
Pb      38.19324134      58.68362500      18.86271483
Pb      32.97614134      58.68362500      43.30078517
Pb      34.84615866      61.07887500      52.18128517
Pb      40.06325866      61.07887500      45.50421483
Pb      38.19324134      58.68362500      36.62371483
Pb      32.97614134      58.68362500      61.06178517
Pb      34.84615866      61.07887500      69.94228517
Pb      40.06325866      61.07887500      63.26521483
Pb      38.19324134      58.68362500      54.38471483
Pb      32.97614134      63.47412500       7.77878517
Pb      34.84615866      65.86937500      16.65928517
Pb      40.06325866      65.86937500       9.98221483
Pb      38.19324134      63.47412500       1.10171483
Pb      32.97614134      63.47412500      25.53978517
Pb      34.84615866      65.86937500      34.42028517
Pb      40.06325866      65.86937500      27.74321483
Pb      38.19324134      63.47412500      18.86271483
Pb      32.97614134      63.47412500      43.30078517
Pb      34.84615866      65.86937500      52.18128517
Pb      40.06325866      65.86937500      45.50421483
Pb      38.19324134      63.47412500      36.62371483
Pb      32.97614134      63.47412500      61.06178517
Pb      34.84615866      65.86937500      69.94228517
Pb      40.06325866      65.86937500      63.26521483
Pb      38.19324134      63.47412500      54.38471483
Pb      32.97614134      68.26462500       7.77878517
Pb      34.84615866      70.65987500      16.65928517
Pb      40.06325866      70.65987500       9.98221483
Pb      38.19324134      68.26462500       1.10171483
Pb      32.97614134      68.26462500      25.53978517
Pb      34.84615866      70.65987500      34.42028517
Pb      40.06325866      70.65987500      27.74321483
Pb      38.19324134      68.26462500      18.86271483
Pb      32.97614134      68.26462500      43.30078517
Pb      34.84615866      70.65987500      52.18128517
Pb      40.06325866      70.65987500      45.50421483
Pb      38.19324134      68.26462500      36.62371483
Pb      32.97614134      68.26462500      61.06178517
Pb      34.84615866      70.65987500      69.94228517
Pb      40.06325866      70.65987500      63.26521483
Pb      38.19324134      68.26462500      54.38471483
Pb      32.97614134      73.05512500       7.77878517
Pb      34.84615866      75.45037500      16.65928517
Pb      40.06325866      75.45037500       9.98221483
Pb      38.19324134      73.05512500       1.10171483
Pb      32.97614134      73.05512500      25.53978517
Pb      34.84615866      75.45037500      34.42028517
Pb      40.06325866      75.45037500      27.74321483
Pb      38.19324134      73.05512500      18.86271483
Pb      32.97614134      73.05512500      43.30078517
Pb      34.84615866      75.45037500      52.18128517
Pb      40.06325866      75.45037500      45.50421483
Pb      38.19324134      73.05512500      36.62371483
Pb      32.97614134      73.05512500      61.06178517
Pb      34.84615866      75.45037500      69.94228517
Pb      40.06325866      75.45037500      63.26521483
Pb      38.19324134      73.05512500      54.38471483
Pb      32.97614134      77.84562500       7.77878517
Pb      34.84615866      80.24087500      16.65928517
Pb      40.06325866      80.24087500       9.98221483
Pb      38.19324134      77.84562500       1.10171483
Pb      32.97614134      77.84562500      25.53978517
Pb      34.84615866      80.24087500      34.42028517
Pb      40.06325866      80.24087500      27.74321483
Pb      38.19324134      77.84562500      18.86271483
Pb      32.97614134      77.84562500      43.30078517
Pb      34.84615866      80.24087500      52.18128517
Pb      40.06325866      80.24087500      45.50421483
Pb      38.19324134      77.84562500      36.62371483
Pb      32.97614134      77.84562500      61.06178517
Pb      34.84615866      80.24087500      69.94228517
Pb      40.06325866      80.24087500      63.26521483
Pb      38.19324134      77.84562500      54.38471483
Pb      32.97614134      82.63612500       7.77878517
Pb      34.84615866      85.03137500      16.65928517
Pb      40.06325866      85.03137500       9.98221483
Pb      38.19324134      82.63612500       1.10171483
Pb      32.97614134      82.63612500      25.53978517
Pb      34.84615866      85.03137500      34.42028517
Pb      40.06325866      85.03137500      27.74321483
Pb      38.19324134      82.63612500      18.86271483
Pb      32.97614134      82.63612500      43.30078517
Pb      34.84615866      85.03137500      52.18128517
Pb      40.06325866      85.03137500      45.50421483
Pb      38.19324134      82.63612500      36.62371483
Pb      32.97614134      82.63612500      61.06178517
Pb      34.84615866      85.03137500      69.94228517
Pb      40.06325866      85.03137500      63.26521483
Pb      38.19324134      82.63612500      54.38471483
Pb      43.41034134       1.19762500       7.77878517
Pb      45.28035866       3.59287500      16.65928517
Pb      50.49745866       3.59287500       9.98221483
Pb      48.62744134       1.19762500       1.10171483
Pb      43.41034134       1.19762500      25.53978517
Pb      45.28035866       3.59287500      34.42028517
Pb      50.49745866       3.59287500      27.74321483
Pb      48.62744134       1.19762500      18.86271483
Pb      43.41034134       1.19762500      43.30078517
Pb      45.28035866       3.59287500      52.18128517
Pb      50.49745866       3.59287500      45.50421483
Pb      48.62744134       1.19762500      36.62371483
Pb      43.41034134       1.19762500      61.06178517
Pb      45.28035866       3.59287500      69.94228517
Pb      50.49745866       3.59287500      63.26521483
Pb      48.62744134       1.19762500      54.38471483
Pb      43.41034134       5.98812500       7.77878517
Pb      45.28035866       8.38337500      16.65928517
Pb      50.49745866       8.38337500       9.98221483
Pb      48.62744134       5.98812500       1.10171483
Pb      43.41034134       5.98812500      25.53978517
Pb      45.28035866       8.38337500      34.42028517
Pb      50.49745866       8.38337500      27.74321483
Pb      48.62744134       5.98812500      18.86271483
Pb      43.41034134       5.98812500      43.30078517
Pb      45.28035866       8.38337500      52.18128517
Pb      50.49745866       8.38337500      45.50421483
Pb      48.62744134       5.98812500      36.62371483
Pb      43.41034134       5.98812500      61.06178517
Pb      45.28035866       8.38337500      69.94228517
Pb      50.49745866       8.38337500      63.26521483
Pb      48.62744134       5.98812500      54.38471483
Pb      43.41034134      10.77862500       7.77878517
Pb      45.28035866      13.17387500      16.65928517
Pb      50.49745866      13.17387500       9.98221483
Pb      48.62744134      10.77862500       1.10171483
Pb      43.41034134      10.77862500      25.53978517
Pb      45.28035866      13.17387500      34.42028517
Pb      50.49745866      13.17387500      27.74321483
Pb      48.62744134      10.77862500      18.86271483
Pb      43.41034134      10.77862500      43.30078517
Pb      45.28035866      13.17387500      52.18128517
Pb      50.49745866      13.17387500      45.50421483
Pb      48.62744134      10.77862500      36.62371483
Pb      43.41034134      10.77862500      61.06178517
Pb      45.28035866      13.17387500      69.94228517
Pb      50.49745866      13.17387500      63.26521483
Pb      48.62744134      10.77862500      54.38471483
Pb      43.41034134      15.56912500       7.77878517
Pb      45.28035866      17.96437500      16.65928517
Pb      50.49745866      17.96437500       9.98221483
Pb      48.62744134      15.56912500       1.10171483
Pb      43.41034134      15.56912500      25.53978517
Pb      45.28035866      17.96437500      34.42028517
Pb      50.49745866      17.96437500      27.74321483
Pb      48.62744134      15.56912500      18.86271483
Pb      43.41034134      15.56912500      43.30078517
Pb      45.28035866      17.96437500      52.18128517
Pb      50.49745866      17.96437500      45.50421483
Pb      48.62744134      15.56912500      36.62371483
Pb      43.41034134      15.56912500      61.06178517
Pb      45.28035866      17.96437500      69.94228517
Pb      50.49745866      17.96437500      63.26521483
Pb      48.62744134      15.56912500      54.38471483
Pb      43.41034134      20.35962500       7.77878517
Pb      45.28035866      22.75487500      16.65928517
Pb      50.49745866      22.75487500       9.98221483
Pb      48.62744134      20.35962500       1.10171483
Pb      43.41034134      20.35962500      25.53978517
Pb      45.28035866      22.75487500      34.42028517
Pb      50.49745866      22.75487500      27.74321483
Pb      48.62744134      20.35962500      18.86271483
Pb      43.41034134      20.35962500      43.30078517
Pb      45.28035866      22.75487500      52.18128517
Pb      50.49745866      22.75487500      45.50421483
Pb      48.62744134      20.35962500      36.62371483
Pb      43.41034134      20.35962500      61.06178517
Pb      45.28035866      22.75487500      69.94228517
Pb      50.49745866      22.75487500      63.26521483
Pb      48.62744134      20.35962500      54.38471483
Pb      43.41034134      25.15012500       7.77878517
Pb      45.28035866      27.54537500      16.65928517
Pb      50.49745866      27.54537500       9.98221483
Pb      48.62744134      25.15012500       1.10171483
Pb      43.41034134      25.15012500      25.53978517
Pb      45.28035866      27.54537500      34.42028517
Pb      50.49745866      27.54537500      27.74321483
Pb      48.62744134      25.15012500      18.86271483
Pb      43.41034134      25.15012500      43.30078517
Pb      45.28035866      27.54537500      52.18128517
Pb      50.49745866      27.54537500      45.50421483
Pb      48.62744134      25.15012500      36.62371483
Pb      43.41034134      25.15012500      61.06178517
Pb      45.28035866      27.54537500      69.94228517
Pb      50.49745866      27.54537500      63.26521483
Pb      48.62744134      25.15012500      54.38471483
Pb      43.41034134      29.94062500       7.77878517
Pb      45.28035866      32.33587500      16.65928517
Pb      50.49745866      32.33587500       9.98221483
Pb      48.62744134      29.94062500       1.10171483
Pb      43.41034134      29.94062500      25.53978517
Pb      45.28035866      32.33587500      34.42028517
Pb      50.49745866      32.33587500      27.74321483
Pb      48.62744134      29.94062500      18.86271483
Pb      43.41034134      29.94062500      43.30078517
Pb      45.28035866      32.33587500      52.18128517
Pb      50.49745866      32.33587500      45.50421483
Pb      48.62744134      29.94062500      36.62371483
Pb      43.41034134      29.94062500      61.06178517
Pb      45.28035866      32.33587500      69.94228517
Pb      50.49745866      32.33587500      63.26521483
Pb      48.62744134      29.94062500      54.38471483
Pb      43.41034134      34.73112500       7.77878517
Pb      45.28035866      37.12637500      16.65928517
Pb      50.49745866      37.12637500       9.98221483
Pb      48.62744134      34.73112500       1.10171483
Pb      43.41034134      34.73112500      25.53978517
Pb      45.28035866      37.12637500      34.42028517
Pb      50.49745866      37.12637500      27.74321483
Pb      48.62744134      34.73112500      18.86271483
Pb      43.41034134      34.73112500      43.30078517
Pb      45.28035866      37.12637500      52.18128517
Pb      50.49745866      37.12637500      45.50421483
Pb      48.62744134      34.73112500      36.62371483
Pb      43.41034134      34.73112500      61.06178517
Pb      45.28035866      37.12637500      69.94228517
Pb      50.49745866      37.12637500      63.26521483
Pb      48.62744134      34.73112500      54.38471483
Pb      43.41034134      39.52162500       7.77878517
Pb      45.28035866      41.91687500      16.65928517
Pb      50.49745866      41.91687500       9.98221483
Pb      48.62744134      39.52162500       1.10171483
Pb      43.41034134      39.52162500      25.53978517
Pb      45.28035866      41.91687500      34.42028517
Pb      50.49745866      41.91687500      27.74321483
Pb      48.62744134      39.52162500      18.86271483
Pb      43.41034134      39.52162500      43.30078517
Pb      45.28035866      41.91687500      52.18128517
Pb      50.49745866      41.91687500      45.50421483
Pb      48.62744134      39.52162500      36.62371483
Pb      43.41034134      39.52162500      61.06178517
Pb      45.28035866      41.91687500      69.94228517
Pb      50.49745866      41.91687500      63.26521483
Pb      48.62744134      39.52162500      54.38471483
Pb      43.41034134      44.31212500       7.77878517
Pb      45.28035866      46.70737500      16.65928517
Pb      50.49745866      46.70737500       9.98221483
Pb      48.62744134      44.31212500       1.10171483
Pb      43.41034134      44.31212500      25.53978517
Pb      45.28035866      46.70737500      34.42028517
Pb      50.49745866      46.70737500      27.74321483
Pb      48.62744134      44.31212500      18.86271483
Pb      43.41034134      44.31212500      43.30078517
Pb      45.28035866      46.70737500      52.18128517
Pb      50.49745866      46.70737500      45.50421483
Pb      48.62744134      44.31212500      36.62371483
Pb      43.41034134      44.31212500      61.06178517
Pb      45.28035866      46.70737500      69.94228517
Pb      50.49745866      46.70737500      63.26521483
Pb      48.62744134      44.31212500      54.38471483
Pb      43.41034134      49.10262500       7.77878517
Pb      45.28035866      51.49787500      16.65928517
Pb      50.49745866      51.49787500       9.98221483
Pb      48.62744134      49.10262500       1.10171483
Pb      43.41034134      49.10262500      25.53978517
Pb      45.28035866      51.49787500      34.42028517
Pb      50.49745866      51.49787500      27.74321483
Pb      48.62744134      49.10262500      18.86271483
Pb      43.41034134      49.10262500      43.30078517
Pb      45.28035866      51.49787500      52.18128517
Pb      50.49745866      51.49787500      45.50421483
Pb      48.62744134      49.10262500      36.62371483
Pb      43.41034134      49.10262500      61.06178517
Pb      45.28035866      51.49787500      69.94228517
Pb      50.49745866      51.49787500      63.26521483
Pb      48.62744134      49.10262500      54.38471483
Pb      43.41034134      53.89312500       7.77878517
Pb      45.28035866      56.28837500      16.65928517
Pb      50.49745866      56.28837500       9.98221483
Pb      48.62744134      53.89312500       1.10171483
Pb      43.41034134      53.89312500      25.53978517
Pb      45.28035866      56.28837500      34.42028517
Pb      50.49745866      56.28837500      27.74321483
Pb      48.62744134      53.89312500      18.86271483
Pb      43.41034134      53.89312500      43.30078517
Pb      45.28035866      56.28837500      52.18128517
Pb      50.49745866      56.28837500      45.50421483
Pb      48.62744134      53.89312500      36.62371483
Pb      43.41034134      53.89312500      61.06178517
Pb      45.28035866      56.28837500      69.94228517
Pb      50.49745866      56.28837500      63.26521483
Pb      48.62744134      53.89312500      54.38471483
Pb      43.41034134      58.68362500       7.77878517
Pb      45.28035866      61.07887500      16.65928517
Pb      50.49745866      61.07887500       9.98221483
Pb      48.62744134      58.68362500       1.10171483
Pb      43.41034134      58.68362500      25.53978517
Pb      45.28035866      61.07887500      34.42028517
Pb      50.49745866      61.07887500      27.74321483
Pb      48.62744134      58.68362500      18.86271483
Pb      43.41034134      58.68362500      43.30078517
Pb      45.28035866      61.07887500      52.18128517
Pb      50.49745866      61.07887500      45.50421483
Pb      48.62744134      58.68362500      36.62371483
Pb      43.41034134      58.68362500      61.06178517
Pb      45.28035866      61.07887500      69.94228517
Pb      50.49745866      61.07887500      63.26521483
Pb      48.62744134      58.68362500      54.38471483
Pb      43.41034134      63.47412500       7.77878517
Pb      45.28035866      65.86937500      16.65928517
Pb      50.49745866      65.86937500       9.98221483
Pb      48.62744134      63.47412500       1.10171483
Pb      43.41034134      63.47412500      25.53978517
Pb      45.28035866      65.86937500      34.42028517
Pb      50.49745866      65.86937500      27.74321483
Pb      48.62744134      63.47412500      18.86271483
Pb      43.41034134      63.47412500      43.30078517
Pb      45.28035866      65.86937500      52.18128517
Pb      50.49745866      65.86937500      45.50421483
Pb      48.62744134      63.47412500      36.62371483
Pb      43.41034134      63.47412500      61.06178517
Pb      45.28035866      65.86937500      69.94228517
Pb      50.49745866      65.86937500      63.26521483
Pb      48.62744134      63.47412500      54.38471483
Pb      43.41034134      68.26462500       7.77878517
Pb      45.28035866      70.65987500      16.65928517
Pb      50.49745866      70.65987500       9.98221483
Pb      48.62744134      68.26462500       1.10171483
Pb      43.41034134      68.26462500      25.53978517
Pb      45.28035866      70.65987500      34.42028517
Pb      50.49745866      70.65987500      27.74321483
Pb      48.62744134      68.26462500      18.86271483
Pb      43.41034134      68.26462500      43.30078517
Pb      45.28035866      70.65987500      52.18128517
Pb      50.49745866      70.65987500      45.50421483
Pb      48.62744134      68.26462500      36.62371483
Pb      43.41034134      68.26462500      61.06178517
Pb      45.28035866      70.65987500      69.94228517
Pb      50.49745866      70.65987500      63.26521483
Pb      48.62744134      68.26462500      54.38471483
Pb      43.41034134      73.05512500       7.77878517
Pb      45.28035866      75.45037500      16.65928517
Pb      50.49745866      75.45037500       9.98221483
Pb      48.62744134      73.05512500       1.10171483
Pb      43.41034134      73.05512500      25.53978517
Pb      45.28035866      75.45037500      34.42028517
Pb      50.49745866      75.45037500      27.74321483
Pb      48.62744134      73.05512500      18.86271483
Pb      43.41034134      73.05512500      43.30078517
Pb      45.28035866      75.45037500      52.18128517
Pb      50.49745866      75.45037500      45.50421483
Pb      48.62744134      73.05512500      36.62371483
Pb      43.41034134      73.05512500      61.06178517
Pb      45.28035866      75.45037500      69.94228517
Pb      50.49745866      75.45037500      63.26521483
Pb      48.62744134      73.05512500      54.38471483
Pb      43.41034134      77.84562500       7.77878517
Pb      45.28035866      80.24087500      16.65928517
Pb      50.49745866      80.24087500       9.98221483
Pb      48.62744134      77.84562500       1.10171483
Pb      43.41034134      77.84562500      25.53978517
Pb      45.28035866      80.24087500      34.42028517
Pb      50.49745866      80.24087500      27.74321483
Pb      48.62744134      77.84562500      18.86271483
Pb      43.41034134      77.84562500      43.30078517
Pb      45.28035866      80.24087500      52.18128517
Pb      50.49745866      80.24087500      45.50421483
Pb      48.62744134      77.84562500      36.62371483
Pb      43.41034134      77.84562500      61.06178517
Pb      45.28035866      80.24087500      69.94228517
Pb      50.49745866      80.24087500      63.26521483
Pb      48.62744134      77.84562500      54.38471483
Pb      43.41034134      82.63612500       7.77878517
Pb      45.28035866      85.03137500      16.65928517
Pb      50.49745866      85.03137500       9.98221483
Pb      48.62744134      82.63612500       1.10171483
Pb      43.41034134      82.63612500      25.53978517
Pb      45.28035866      85.03137500      34.42028517
Pb      50.49745866      85.03137500      27.74321483
Pb      48.62744134      82.63612500      18.86271483
Pb      43.41034134      82.63612500      43.30078517
Pb      45.28035866      85.03137500      52.18128517
Pb      50.49745866      85.03137500      45.50421483
Pb      48.62744134      82.63612500      36.62371483
Pb      43.41034134      82.63612500      61.06178517
Pb      45.28035866      85.03137500      69.94228517
Pb      50.49745866      85.03137500      63.26521483
Pb      48.62744134      82.63612500      54.38471483
Pb      53.84454134       1.19762500       7.77878517
Pb      55.71455866       3.59287500      16.65928517
Pb      60.93165866       3.59287500       9.98221483
Pb      59.06164134       1.19762500       1.10171483
Pb      53.84454134       1.19762500      25.53978517
Pb      55.71455866       3.59287500      34.42028517
Pb      60.93165866       3.59287500      27.74321483
Pb      59.06164134       1.19762500      18.86271483
Pb      53.84454134       1.19762500      43.30078517
Pb      55.71455866       3.59287500      52.18128517
Pb      60.93165866       3.59287500      45.50421483
Pb      59.06164134       1.19762500      36.62371483
Pb      53.84454134       1.19762500      61.06178517
Pb      55.71455866       3.59287500      69.94228517
Pb      60.93165866       3.59287500      63.26521483
Pb      59.06164134       1.19762500      54.38471483
Pb      53.84454134       5.98812500       7.77878517
Pb      55.71455866       8.38337500      16.65928517
Pb      60.93165866       8.38337500       9.98221483
Pb      59.06164134       5.98812500       1.10171483
Pb      53.84454134       5.98812500      25.53978517
Pb      55.71455866       8.38337500      34.42028517
Pb      60.93165866       8.38337500      27.74321483
Pb      59.06164134       5.98812500      18.86271483
Pb      53.84454134       5.98812500      43.30078517
Pb      55.71455866       8.38337500      52.18128517
Pb      60.93165866       8.38337500      45.50421483
Pb      59.06164134       5.98812500      36.62371483
Pb      53.84454134       5.98812500      61.06178517
Pb      55.71455866       8.38337500      69.94228517
Pb      60.93165866       8.38337500      63.26521483
Pb      59.06164134       5.98812500      54.38471483
Pb      53.84454134      10.77862500       7.77878517
Pb      55.71455866      13.17387500      16.65928517
Pb      60.93165866      13.17387500       9.98221483
Pb      59.06164134      10.77862500       1.10171483
Pb      53.84454134      10.77862500      25.53978517
Pb      55.71455866      13.17387500      34.42028517
Pb      60.93165866      13.17387500      27.74321483
Pb      59.06164134      10.77862500      18.86271483
Pb      53.84454134      10.77862500      43.30078517
Pb      55.71455866      13.17387500      52.18128517
Pb      60.93165866      13.17387500      45.50421483
Pb      59.06164134      10.77862500      36.62371483
Pb      53.84454134      10.77862500      61.06178517
Pb      55.71455866      13.17387500      69.94228517
Pb      60.93165866      13.17387500      63.26521483
Pb      59.06164134      10.77862500      54.38471483
Pb      53.84454134      15.56912500       7.77878517
Pb      55.71455866      17.96437500      16.65928517
Pb      60.93165866      17.96437500       9.98221483
Pb      59.06164134      15.56912500       1.10171483
Pb      53.84454134      15.56912500      25.53978517
Pb      55.71455866      17.96437500      34.42028517
Pb      60.93165866      17.96437500      27.74321483
Pb      59.06164134      15.56912500      18.86271483
Pb      53.84454134      15.56912500      43.30078517
Pb      55.71455866      17.96437500      52.18128517
Pb      60.93165866      17.96437500      45.50421483
Pb      59.06164134      15.56912500      36.62371483
Pb      53.84454134      15.56912500      61.06178517
Pb      55.71455866      17.96437500      69.94228517
Pb      60.93165866      17.96437500      63.26521483
Pb      59.06164134      15.56912500      54.38471483
Pb      53.84454134      20.35962500       7.77878517
Pb      55.71455866      22.75487500      16.65928517
Pb      60.93165866      22.75487500       9.98221483
Pb      59.06164134      20.35962500       1.10171483
Pb      53.84454134      20.35962500      25.53978517
Pb      55.71455866      22.75487500      34.42028517
Pb      60.93165866      22.75487500      27.74321483
Pb      59.06164134      20.35962500      18.86271483
Pb      53.84454134      20.35962500      43.30078517
Pb      55.71455866      22.75487500      52.18128517
Pb      60.93165866      22.75487500      45.50421483
Pb      59.06164134      20.35962500      36.62371483
Pb      53.84454134      20.35962500      61.06178517
Pb      55.71455866      22.75487500      69.94228517
Pb      60.93165866      22.75487500      63.26521483
Pb      59.06164134      20.35962500      54.38471483
Pb      53.84454134      25.15012500       7.77878517
Pb      55.71455866      27.54537500      16.65928517
Pb      60.93165866      27.54537500       9.98221483
Pb      59.06164134      25.15012500       1.10171483
Pb      53.84454134      25.15012500      25.53978517
Pb      55.71455866      27.54537500      34.42028517
Pb      60.93165866      27.54537500      27.74321483
Pb      59.06164134      25.15012500      18.86271483
Pb      53.84454134      25.15012500      43.30078517
Pb      55.71455866      27.54537500      52.18128517
Pb      60.93165866      27.54537500      45.50421483
Pb      59.06164134      25.15012500      36.62371483
Pb      53.84454134      25.15012500      61.06178517
Pb      55.71455866      27.54537500      69.94228517
Pb      60.93165866      27.54537500      63.26521483
Pb      59.06164134      25.15012500      54.38471483
Pb      53.84454134      29.94062500       7.77878517
Pb      55.71455866      32.33587500      16.65928517
Pb      60.93165866      32.33587500       9.98221483
Pb      59.06164134      29.94062500       1.10171483
Pb      53.84454134      29.94062500      25.53978517
Pb      55.71455866      32.33587500      34.42028517
Pb      60.93165866      32.33587500      27.74321483
Pb      59.06164134      29.94062500      18.86271483
Pb      53.84454134      29.94062500      43.30078517
Pb      55.71455866      32.33587500      52.18128517
Pb      60.93165866      32.33587500      45.50421483
Pb      59.06164134      29.94062500      36.62371483
Pb      53.84454134      29.94062500      61.06178517
Pb      55.71455866      32.33587500      69.94228517
Pb      60.93165866      32.33587500      63.26521483
Pb      59.06164134      29.94062500      54.38471483
Pb      53.84454134      34.73112500       7.77878517
Pb      55.71455866      37.12637500      16.65928517
Pb      60.93165866      37.12637500       9.98221483
Pb      59.06164134      34.73112500       1.10171483
Pb      53.84454134      34.73112500      25.53978517
Pb      55.71455866      37.12637500      34.42028517
Pb      60.93165866      37.12637500      27.74321483
Pb      59.06164134      34.73112500      18.86271483
Pb      53.84454134      34.73112500      43.30078517
Pb      55.71455866      37.12637500      52.18128517
Pb      60.93165866      37.12637500      45.50421483
Pb      59.06164134      34.73112500      36.62371483
Pb      53.84454134      34.73112500      61.06178517
Pb      55.71455866      37.12637500      69.94228517
Pb      60.93165866      37.12637500      63.26521483
Pb      59.06164134      34.73112500      54.38471483
Pb      53.84454134      39.52162500       7.77878517
Pb      55.71455866      41.91687500      16.65928517
Pb      60.93165866      41.91687500       9.98221483
Pb      59.06164134      39.52162500       1.10171483
Pb      53.84454134      39.52162500      25.53978517
Pb      55.71455866      41.91687500      34.42028517
Pb      60.93165866      41.91687500      27.74321483
Pb      59.06164134      39.52162500      18.86271483
Pb      53.84454134      39.52162500      43.30078517
Pb      55.71455866      41.91687500      52.18128517
Pb      60.93165866      41.91687500      45.50421483
Pb      59.06164134      39.52162500      36.62371483
Pb      53.84454134      39.52162500      61.06178517
Pb      55.71455866      41.91687500      69.94228517
Pb      60.93165866      41.91687500      63.26521483
Pb      59.06164134      39.52162500      54.38471483
Pb      53.84454134      44.31212500       7.77878517
Pb      55.71455866      46.70737500      16.65928517
Pb      60.93165866      46.70737500       9.98221483
Pb      59.06164134      44.31212500       1.10171483
Pb      53.84454134      44.31212500      25.53978517
Pb      55.71455866      46.70737500      34.42028517
Pb      60.93165866      46.70737500      27.74321483
Pb      59.06164134      44.31212500      18.86271483
Pb      53.84454134      44.31212500      43.30078517
Pb      55.71455866      46.70737500      52.18128517
Pb      60.93165866      46.70737500      45.50421483
Pb      59.06164134      44.31212500      36.62371483
Pb      53.84454134      44.31212500      61.06178517
Pb      55.71455866      46.70737500      69.94228517
Pb      60.93165866      46.70737500      63.26521483
Pb      59.06164134      44.31212500      54.38471483
Pb      53.84454134      49.10262500       7.77878517
Pb      55.71455866      51.49787500      16.65928517
Pb      60.93165866      51.49787500       9.98221483
Pb      59.06164134      49.10262500       1.10171483
Pb      53.84454134      49.10262500      25.53978517
Pb      55.71455866      51.49787500      34.42028517
Pb      60.93165866      51.49787500      27.74321483
Pb      59.06164134      49.10262500      18.86271483
Pb      53.84454134      49.10262500      43.30078517
Pb      55.71455866      51.49787500      52.18128517
Pb      60.93165866      51.49787500      45.50421483
Pb      59.06164134      49.10262500      36.62371483
Pb      53.84454134      49.10262500      61.06178517
Pb      55.71455866      51.49787500      69.94228517
Pb      60.93165866      51.49787500      63.26521483
Pb      59.06164134      49.10262500      54.38471483
Pb      53.84454134      53.89312500       7.77878517
Pb      55.71455866      56.28837500      16.65928517
Pb      60.93165866      56.28837500       9.98221483
Pb      59.06164134      53.89312500       1.10171483
Pb      53.84454134      53.89312500      25.53978517
Pb      55.71455866      56.28837500      34.42028517
Pb      60.93165866      56.28837500      27.74321483
Pb      59.06164134      53.89312500      18.86271483
Pb      53.84454134      53.89312500      43.30078517
Pb      55.71455866      56.28837500      52.18128517
Pb      60.93165866      56.28837500      45.50421483
Pb      59.06164134      53.89312500      36.62371483
Pb      53.84454134      53.89312500      61.06178517
Pb      55.71455866      56.28837500      69.94228517
Pb      60.93165866      56.28837500      63.26521483
Pb      59.06164134      53.89312500      54.38471483
Pb      53.84454134      58.68362500       7.77878517
Pb      55.71455866      61.07887500      16.65928517
Pb      60.93165866      61.07887500       9.98221483
Pb      59.06164134      58.68362500       1.10171483
Pb      53.84454134      58.68362500      25.53978517
Pb      55.71455866      61.07887500      34.42028517
Pb      60.93165866      61.07887500      27.74321483
Pb      59.06164134      58.68362500      18.86271483
Pb      53.84454134      58.68362500      43.30078517
Pb      55.71455866      61.07887500      52.18128517
Pb      60.93165866      61.07887500      45.50421483
Pb      59.06164134      58.68362500      36.62371483
Pb      53.84454134      58.68362500      61.06178517
Pb      55.71455866      61.07887500      69.94228517
Pb      60.93165866      61.07887500      63.26521483
Pb      59.06164134      58.68362500      54.38471483
Pb      53.84454134      63.47412500       7.77878517
Pb      55.71455866      65.86937500      16.65928517
Pb      60.93165866      65.86937500       9.98221483
Pb      59.06164134      63.47412500       1.10171483
Pb      53.84454134      63.47412500      25.53978517
Pb      55.71455866      65.86937500      34.42028517
Pb      60.93165866      65.86937500      27.74321483
Pb      59.06164134      63.47412500      18.86271483
Pb      53.84454134      63.47412500      43.30078517
Pb      55.71455866      65.86937500      52.18128517
Pb      60.93165866      65.86937500      45.50421483
Pb      59.06164134      63.47412500      36.62371483
Pb      53.84454134      63.47412500      61.06178517
Pb      55.71455866      65.86937500      69.94228517
Pb      60.93165866      65.86937500      63.26521483
Pb      59.06164134      63.47412500      54.38471483
Pb      53.84454134      68.26462500       7.77878517
Pb      55.71455866      70.65987500      16.65928517
Pb      60.93165866      70.65987500       9.98221483
Pb      59.06164134      68.26462500       1.10171483
Pb      53.84454134      68.26462500      25.53978517
Pb      55.71455866      70.65987500      34.42028517
Pb      60.93165866      70.65987500      27.74321483
Pb      59.06164134      68.26462500      18.86271483
Pb      53.84454134      68.26462500      43.30078517
Pb      55.71455866      70.65987500      52.18128517
Pb      60.93165866      70.65987500      45.50421483
Pb      59.06164134      68.26462500      36.62371483
Pb      53.84454134      68.26462500      61.06178517
Pb      55.71455866      70.65987500      69.94228517
Pb      60.93165866      70.65987500      63.26521483
Pb      59.06164134      68.26462500      54.38471483
Pb      53.84454134      73.05512500       7.77878517
Pb      55.71455866      75.45037500      16.65928517
Pb      60.93165866      75.45037500       9.98221483
Pb      59.06164134      73.05512500       1.10171483
Pb      53.84454134      73.05512500      25.53978517
Pb      55.71455866      75.45037500      34.42028517
Pb      60.93165866      75.45037500      27.74321483
Pb      59.06164134      73.05512500      18.86271483
Pb      53.84454134      73.05512500      43.30078517
Pb      55.71455866      75.45037500      52.18128517
Pb      60.93165866      75.45037500      45.50421483
Pb      59.06164134      73.05512500      36.62371483
Pb      53.84454134      73.05512500      61.06178517
Pb      55.71455866      75.45037500      69.94228517
Pb      60.93165866      75.45037500      63.26521483
Pb      59.06164134      73.05512500      54.38471483
Pb      53.84454134      77.84562500       7.77878517
Pb      55.71455866      80.24087500      16.65928517
Pb      60.93165866      80.24087500       9.98221483
Pb      59.06164134      77.84562500       1.10171483
Pb      53.84454134      77.84562500      25.53978517
Pb      55.71455866      80.24087500      34.42028517
Pb      60.93165866      80.24087500      27.74321483
Pb      59.06164134      77.84562500      18.86271483
Pb      53.84454134      77.84562500      43.30078517
Pb      55.71455866      80.24087500      52.18128517
Pb      60.93165866      80.24087500      45.50421483
Pb      59.06164134      77.84562500      36.62371483
Pb      53.84454134      77.84562500      61.06178517
Pb      55.71455866      80.24087500      69.94228517
Pb      60.93165866      80.24087500      63.26521483
Pb      59.06164134      77.84562500      54.38471483
Pb      53.84454134      82.63612500       7.77878517
Pb      55.71455866      85.03137500      16.65928517
Pb      60.93165866      85.03137500       9.98221483
Pb      59.06164134      82.63612500       1.10171483
Pb      53.84454134      82.63612500      25.53978517
Pb      55.71455866      85.03137500      34.42028517
Pb      60.93165866      85.03137500      27.74321483
Pb      59.06164134      82.63612500      18.86271483
Pb      53.84454134      82.63612500      43.30078517
Pb      55.71455866      85.03137500      52.18128517
Pb      60.93165866      85.03137500      45.50421483
Pb      59.06164134      82.63612500      36.62371483
Pb      53.84454134      82.63612500      61.06178517
Pb      55.71455866      85.03137500      69.94228517
Pb      60.93165866      85.03137500      63.26521483
Pb      59.06164134      82.63612500      54.38471483
I        1.70307012       1.19762500       0.02841760
I        3.51402988       3.59287500       8.90891760
I        8.73112988       3.59287500      17.73258240
I        6.92017012       1.19762500       8.85208240
I        3.12086922       1.19762500       5.10255769
I        2.09623078       3.59287500      13.98305769
I        7.31333078       3.59287500      12.65844231
I        8.33796922       1.19762500       3.77794231
I        0.33295532       1.19762500      10.91395689
I        4.88414468       3.59287500       2.03345689
I       10.10124468       3.59287500       6.84704311
I        5.55005532       1.19762500      15.72754311
I        1.70307012       1.19762500      17.78941760
I        3.51402988       3.59287500      26.66991760
I        8.73112988       3.59287500      35.49358240
I        6.92017012       1.19762500      26.61308240
I        3.12086922       1.19762500      22.86355769
I        2.09623078       3.59287500      31.74405769
I        7.31333078       3.59287500      30.41944231
I        8.33796922       1.19762500      21.53894231
I        0.33295532       1.19762500      28.67495689
I        4.88414468       3.59287500      19.79445689
I       10.10124468       3.59287500      24.60804311
I        5.55005532       1.19762500      33.48854311
I        1.70307012       1.19762500      35.55041760
I        3.51402988       3.59287500      44.43091760
I        8.73112988       3.59287500      53.25458240
I        6.92017012       1.19762500      44.37408240
I        3.12086922       1.19762500      40.62455769
I        2.09623078       3.59287500      49.50505769
I        7.31333078       3.59287500      48.18044231
I        8.33796922       1.19762500      39.29994231
I        0.33295532       1.19762500      46.43595689
I        4.88414468       3.59287500      37.55545689
I       10.10124468       3.59287500      42.36904311
I        5.55005532       1.19762500      51.24954311
I        1.70307012       1.19762500      53.31141760
I        3.51402988       3.59287500      62.19191760
I        8.73112988       3.59287500      71.01558240
I        6.92017012       1.19762500      62.13508240
I        3.12086922       1.19762500      58.38555769
I        2.09623078       3.59287500      67.26605769
I        7.31333078       3.59287500      65.94144231
I        8.33796922       1.19762500      57.06094231
I        0.33295532       1.19762500      64.19695689
I        4.88414468       3.59287500      55.31645689
I       10.10124468       3.59287500      60.13004311
I        5.55005532       1.19762500      69.01054311
I        1.70307012       5.98812500       0.02841760
I        3.51402988       8.38337500       8.90891760
I        8.73112988       8.38337500      17.73258240
I        6.92017012       5.98812500       8.85208240
I        3.12086922       5.98812500       5.10255769
I        2.09623078       8.38337500      13.98305769
I        7.31333078       8.38337500      12.65844231
I        8.33796922       5.98812500       3.77794231
I        0.33295532       5.98812500      10.91395689
I        4.88414468       8.38337500       2.03345689
I       10.10124468       8.38337500       6.84704311
I        5.55005532       5.98812500      15.72754311
I        1.70307012       5.98812500      17.78941760
I        3.51402988       8.38337500      26.66991760
I        8.73112988       8.38337500      35.49358240
I        6.92017012       5.98812500      26.61308240
I        3.12086922       5.98812500      22.86355769
I        2.09623078       8.38337500      31.74405769
I        7.31333078       8.38337500      30.41944231
I        8.33796922       5.98812500      21.53894231
I        0.33295532       5.98812500      28.67495689
I        4.88414468       8.38337500      19.79445689
I       10.10124468       8.38337500      24.60804311
I        5.55005532       5.98812500      33.48854311
I        1.70307012       5.98812500      35.55041760
I        3.51402988       8.38337500      44.43091760
I        8.73112988       8.38337500      53.25458240
I        6.92017012       5.98812500      44.37408240
I        3.12086922       5.98812500      40.62455769
I        2.09623078       8.38337500      49.50505769
I        7.31333078       8.38337500      48.18044231
I        8.33796922       5.98812500      39.29994231
I        0.33295532       5.98812500      46.43595689
I        4.88414468       8.38337500      37.55545689
I       10.10124468       8.38337500      42.36904311
I        5.55005532       5.98812500      51.24954311
I        1.70307012       5.98812500      53.31141760
I        3.51402988       8.38337500      62.19191760
I        8.73112988       8.38337500      71.01558240
I        6.92017012       5.98812500      62.13508240
I        3.12086922       5.98812500      58.38555769
I        2.09623078       8.38337500      67.26605769
I        7.31333078       8.38337500      65.94144231
I        8.33796922       5.98812500      57.06094231
I        0.33295532       5.98812500      64.19695689
I        4.88414468       8.38337500      55.31645689
I       10.10124468       8.38337500      60.13004311
I        5.55005532       5.98812500      69.01054311
I        1.70307012      10.77862500       0.02841760
I        3.51402988      13.17387500       8.90891760
I        8.73112988      13.17387500      17.73258240
I        6.92017012      10.77862500       8.85208240
I        3.12086922      10.77862500       5.10255769
I        2.09623078      13.17387500      13.98305769
I        7.31333078      13.17387500      12.65844231
I        8.33796922      10.77862500       3.77794231
I        0.33295532      10.77862500      10.91395689
I        4.88414468      13.17387500       2.03345689
I       10.10124468      13.17387500       6.84704311
I        5.55005532      10.77862500      15.72754311
I        1.70307012      10.77862500      17.78941760
I        3.51402988      13.17387500      26.66991760
I        8.73112988      13.17387500      35.49358240
I        6.92017012      10.77862500      26.61308240
I        3.12086922      10.77862500      22.86355769
I        2.09623078      13.17387500      31.74405769
I        7.31333078      13.17387500      30.41944231
I        8.33796922      10.77862500      21.53894231
I        0.33295532      10.77862500      28.67495689
I        4.88414468      13.17387500      19.79445689
I       10.10124468      13.17387500      24.60804311
I        5.55005532      10.77862500      33.48854311
I        1.70307012      10.77862500      35.55041760
I        3.51402988      13.17387500      44.43091760
I        8.73112988      13.17387500      53.25458240
I        6.92017012      10.77862500      44.37408240
I        3.12086922      10.77862500      40.62455769
I        2.09623078      13.17387500      49.50505769
I        7.31333078      13.17387500      48.18044231
I        8.33796922      10.77862500      39.29994231
I        0.33295532      10.77862500      46.43595689
I        4.88414468      13.17387500      37.55545689
I       10.10124468      13.17387500      42.36904311
I        5.55005532      10.77862500      51.24954311
I        1.70307012      10.77862500      53.31141760
I        3.51402988      13.17387500      62.19191760
I        8.73112988      13.17387500      71.01558240
I        6.92017012      10.77862500      62.13508240
I        3.12086922      10.77862500      58.38555769
I        2.09623078      13.17387500      67.26605769
I        7.31333078      13.17387500      65.94144231
I        8.33796922      10.77862500      57.06094231
I        0.33295532      10.77862500      64.19695689
I        4.88414468      13.17387500      55.31645689
I       10.10124468      13.17387500      60.13004311
I        5.55005532      10.77862500      69.01054311
I        1.70307012      15.56912500       0.02841760
I        3.51402988      17.96437500       8.90891760
I        8.73112988      17.96437500      17.73258240
I        6.92017012      15.56912500       8.85208240
I        3.12086922      15.56912500       5.10255769
I        2.09623078      17.96437500      13.98305769
I        7.31333078      17.96437500      12.65844231
I        8.33796922      15.56912500       3.77794231
I        0.33295532      15.56912500      10.91395689
I        4.88414468      17.96437500       2.03345689
I       10.10124468      17.96437500       6.84704311
I        5.55005532      15.56912500      15.72754311
I        1.70307012      15.56912500      17.78941760
I        3.51402988      17.96437500      26.66991760
I        8.73112988      17.96437500      35.49358240
I        6.92017012      15.56912500      26.61308240
I        3.12086922      15.56912500      22.86355769
I        2.09623078      17.96437500      31.74405769
I        7.31333078      17.96437500      30.41944231
I        8.33796922      15.56912500      21.53894231
I        0.33295532      15.56912500      28.67495689
I        4.88414468      17.96437500      19.79445689
I       10.10124468      17.96437500      24.60804311
I        5.55005532      15.56912500      33.48854311
I        1.70307012      15.56912500      35.55041760
I        3.51402988      17.96437500      44.43091760
I        8.73112988      17.96437500      53.25458240
I        6.92017012      15.56912500      44.37408240
I        3.12086922      15.56912500      40.62455769
I        2.09623078      17.96437500      49.50505769
I        7.31333078      17.96437500      48.18044231
I        8.33796922      15.56912500      39.29994231
I        0.33295532      15.56912500      46.43595689
I        4.88414468      17.96437500      37.55545689
I       10.10124468      17.96437500      42.36904311
I        5.55005532      15.56912500      51.24954311
I        1.70307012      15.56912500      53.31141760
I        3.51402988      17.96437500      62.19191760
I        8.73112988      17.96437500      71.01558240
I        6.92017012      15.56912500      62.13508240
I        3.12086922      15.56912500      58.38555769
I        2.09623078      17.96437500      67.26605769
I        7.31333078      17.96437500      65.94144231
I        8.33796922      15.56912500      57.06094231
I        0.33295532      15.56912500      64.19695689
I        4.88414468      17.96437500      55.31645689
I       10.10124468      17.96437500      60.13004311
I        5.55005532      15.56912500      69.01054311
I        1.70307012      20.35962500       0.02841760
I        3.51402988      22.75487500       8.90891760
I        8.73112988      22.75487500      17.73258240
I        6.92017012      20.35962500       8.85208240
I        3.12086922      20.35962500       5.10255769
I        2.09623078      22.75487500      13.98305769
I        7.31333078      22.75487500      12.65844231
I        8.33796922      20.35962500       3.77794231
I        0.33295532      20.35962500      10.91395689
I        4.88414468      22.75487500       2.03345689
I       10.10124468      22.75487500       6.84704311
I        5.55005532      20.35962500      15.72754311
I        1.70307012      20.35962500      17.78941760
I        3.51402988      22.75487500      26.66991760
I        8.73112988      22.75487500      35.49358240
I        6.92017012      20.35962500      26.61308240
I        3.12086922      20.35962500      22.86355769
I        2.09623078      22.75487500      31.74405769
I        7.31333078      22.75487500      30.41944231
I        8.33796922      20.35962500      21.53894231
I        0.33295532      20.35962500      28.67495689
I        4.88414468      22.75487500      19.79445689
I       10.10124468      22.75487500      24.60804311
I        5.55005532      20.35962500      33.48854311
I        1.70307012      20.35962500      35.55041760
I        3.51402988      22.75487500      44.43091760
I        8.73112988      22.75487500      53.25458240
I        6.92017012      20.35962500      44.37408240
I        3.12086922      20.35962500      40.62455769
I        2.09623078      22.75487500      49.50505769
I        7.31333078      22.75487500      48.18044231
I        8.33796922      20.35962500      39.29994231
I        0.33295532      20.35962500      46.43595689
I        4.88414468      22.75487500      37.55545689
I       10.10124468      22.75487500      42.36904311
I        5.55005532      20.35962500      51.24954311
I        1.70307012      20.35962500      53.31141760
I        3.51402988      22.75487500      62.19191760
I        8.73112988      22.75487500      71.01558240
I        6.92017012      20.35962500      62.13508240
I        3.12086922      20.35962500      58.38555769
I        2.09623078      22.75487500      67.26605769
I        7.31333078      22.75487500      65.94144231
I        8.33796922      20.35962500      57.06094231
I        0.33295532      20.35962500      64.19695689
I        4.88414468      22.75487500      55.31645689
I       10.10124468      22.75487500      60.13004311
I        5.55005532      20.35962500      69.01054311
I        1.70307012      25.15012500       0.02841760
I        3.51402988      27.54537500       8.90891760
I        8.73112988      27.54537500      17.73258240
I        6.92017012      25.15012500       8.85208240
I        3.12086922      25.15012500       5.10255769
I        2.09623078      27.54537500      13.98305769
I        7.31333078      27.54537500      12.65844231
I        8.33796922      25.15012500       3.77794231
I        0.33295532      25.15012500      10.91395689
I        4.88414468      27.54537500       2.03345689
I       10.10124468      27.54537500       6.84704311
I        5.55005532      25.15012500      15.72754311
I        1.70307012      25.15012500      17.78941760
I        3.51402988      27.54537500      26.66991760
I        8.73112988      27.54537500      35.49358240
I        6.92017012      25.15012500      26.61308240
I        3.12086922      25.15012500      22.86355769
I        2.09623078      27.54537500      31.74405769
I        7.31333078      27.54537500      30.41944231
I        8.33796922      25.15012500      21.53894231
I        0.33295532      25.15012500      28.67495689
I        4.88414468      27.54537500      19.79445689
I       10.10124468      27.54537500      24.60804311
I        5.55005532      25.15012500      33.48854311
I        1.70307012      25.15012500      35.55041760
I        3.51402988      27.54537500      44.43091760
I        8.73112988      27.54537500      53.25458240
I        6.92017012      25.15012500      44.37408240
I        3.12086922      25.15012500      40.62455769
I        2.09623078      27.54537500      49.50505769
I        7.31333078      27.54537500      48.18044231
I        8.33796922      25.15012500      39.29994231
I        0.33295532      25.15012500      46.43595689
I        4.88414468      27.54537500      37.55545689
I       10.10124468      27.54537500      42.36904311
I        5.55005532      25.15012500      51.24954311
I        1.70307012      25.15012500      53.31141760
I        3.51402988      27.54537500      62.19191760
I        8.73112988      27.54537500      71.01558240
I        6.92017012      25.15012500      62.13508240
I        3.12086922      25.15012500      58.38555769
I        2.09623078      27.54537500      67.26605769
I        7.31333078      27.54537500      65.94144231
I        8.33796922      25.15012500      57.06094231
I        0.33295532      25.15012500      64.19695689
I        4.88414468      27.54537500      55.31645689
I       10.10124468      27.54537500      60.13004311
I        5.55005532      25.15012500      69.01054311
I        1.70307012      29.94062500       0.02841760
I        3.51402988      32.33587500       8.90891760
I        8.73112988      32.33587500      17.73258240
I        6.92017012      29.94062500       8.85208240
I        3.12086922      29.94062500       5.10255769
I        2.09623078      32.33587500      13.98305769
I        7.31333078      32.33587500      12.65844231
I        8.33796922      29.94062500       3.77794231
I        0.33295532      29.94062500      10.91395689
I        4.88414468      32.33587500       2.03345689
I       10.10124468      32.33587500       6.84704311
I        5.55005532      29.94062500      15.72754311
I        1.70307012      29.94062500      17.78941760
I        3.51402988      32.33587500      26.66991760
I        8.73112988      32.33587500      35.49358240
I        6.92017012      29.94062500      26.61308240
I        3.12086922      29.94062500      22.86355769
I        2.09623078      32.33587500      31.74405769
I        7.31333078      32.33587500      30.41944231
I        8.33796922      29.94062500      21.53894231
I        0.33295532      29.94062500      28.67495689
I        4.88414468      32.33587500      19.79445689
I       10.10124468      32.33587500      24.60804311
I        5.55005532      29.94062500      33.48854311
I        1.70307012      29.94062500      35.55041760
I        3.51402988      32.33587500      44.43091760
I        8.73112988      32.33587500      53.25458240
I        6.92017012      29.94062500      44.37408240
I        3.12086922      29.94062500      40.62455769
I        2.09623078      32.33587500      49.50505769
I        7.31333078      32.33587500      48.18044231
I        8.33796922      29.94062500      39.29994231
I        0.33295532      29.94062500      46.43595689
I        4.88414468      32.33587500      37.55545689
I       10.10124468      32.33587500      42.36904311
I        5.55005532      29.94062500      51.24954311
I        1.70307012      29.94062500      53.31141760
I        3.51402988      32.33587500      62.19191760
I        8.73112988      32.33587500      71.01558240
I        6.92017012      29.94062500      62.13508240
I        3.12086922      29.94062500      58.38555769
I        2.09623078      32.33587500      67.26605769
I        7.31333078      32.33587500      65.94144231
I        8.33796922      29.94062500      57.06094231
I        0.33295532      29.94062500      64.19695689
I        4.88414468      32.33587500      55.31645689
I       10.10124468      32.33587500      60.13004311
I        5.55005532      29.94062500      69.01054311
I        1.70307012      34.73112500       0.02841760
I        3.51402988      37.12637500       8.90891760
I        8.73112988      37.12637500      17.73258240
I        6.92017012      34.73112500       8.85208240
I        3.12086922      34.73112500       5.10255769
I        2.09623078      37.12637500      13.98305769
I        7.31333078      37.12637500      12.65844231
I        8.33796922      34.73112500       3.77794231
I        0.33295532      34.73112500      10.91395689
I        4.88414468      37.12637500       2.03345689
I       10.10124468      37.12637500       6.84704311
I        5.55005532      34.73112500      15.72754311
I        1.70307012      34.73112500      17.78941760
I        3.51402988      37.12637500      26.66991760
I        8.73112988      37.12637500      35.49358240
I        6.92017012      34.73112500      26.61308240
I        3.12086922      34.73112500      22.86355769
I        2.09623078      37.12637500      31.74405769
I        7.31333078      37.12637500      30.41944231
I        8.33796922      34.73112500      21.53894231
I        0.33295532      34.73112500      28.67495689
I        4.88414468      37.12637500      19.79445689
I       10.10124468      37.12637500      24.60804311
I        5.55005532      34.73112500      33.48854311
I        1.70307012      34.73112500      35.55041760
I        3.51402988      37.12637500      44.43091760
I        8.73112988      37.12637500      53.25458240
I        6.92017012      34.73112500      44.37408240
I        3.12086922      34.73112500      40.62455769
I        2.09623078      37.12637500      49.50505769
I        7.31333078      37.12637500      48.18044231
I        8.33796922      34.73112500      39.29994231
I        0.33295532      34.73112500      46.43595689
I        4.88414468      37.12637500      37.55545689
I       10.10124468      37.12637500      42.36904311
I        5.55005532      34.73112500      51.24954311
I        1.70307012      34.73112500      53.31141760
I        3.51402988      37.12637500      62.19191760
I        8.73112988      37.12637500      71.01558240
I        6.92017012      34.73112500      62.13508240
I        3.12086922      34.73112500      58.38555769
I        2.09623078      37.12637500      67.26605769
I        7.31333078      37.12637500      65.94144231
I        8.33796922      34.73112500      57.06094231
I        0.33295532      34.73112500      64.19695689
I        4.88414468      37.12637500      55.31645689
I       10.10124468      37.12637500      60.13004311
I        5.55005532      34.73112500      69.01054311
I        1.70307012      39.52162500       0.02841760
I        3.51402988      41.91687500       8.90891760
I        8.73112988      41.91687500      17.73258240
I        6.92017012      39.52162500       8.85208240
I        3.12086922      39.52162500       5.10255769
I        2.09623078      41.91687500      13.98305769
I        7.31333078      41.91687500      12.65844231
I        8.33796922      39.52162500       3.77794231
I        0.33295532      39.52162500      10.91395689
I        4.88414468      41.91687500       2.03345689
I       10.10124468      41.91687500       6.84704311
I        5.55005532      39.52162500      15.72754311
I        1.70307012      39.52162500      17.78941760
I        3.51402988      41.91687500      26.66991760
I        8.73112988      41.91687500      35.49358240
I        6.92017012      39.52162500      26.61308240
I        3.12086922      39.52162500      22.86355769
I        2.09623078      41.91687500      31.74405769
I        7.31333078      41.91687500      30.41944231
I        8.33796922      39.52162500      21.53894231
I        0.33295532      39.52162500      28.67495689
I        4.88414468      41.91687500      19.79445689
I       10.10124468      41.91687500      24.60804311
I        5.55005532      39.52162500      33.48854311
I        1.70307012      39.52162500      35.55041760
I        3.51402988      41.91687500      44.43091760
I        8.73112988      41.91687500      53.25458240
I        6.92017012      39.52162500      44.37408240
I        3.12086922      39.52162500      40.62455769
I        2.09623078      41.91687500      49.50505769
I        7.31333078      41.91687500      48.18044231
I        8.33796922      39.52162500      39.29994231
I        0.33295532      39.52162500      46.43595689
I        4.88414468      41.91687500      37.55545689
I       10.10124468      41.91687500      42.36904311
I        5.55005532      39.52162500      51.24954311
I        1.70307012      39.52162500      53.31141760
I        3.51402988      41.91687500      62.19191760
I        8.73112988      41.91687500      71.01558240
I        6.92017012      39.52162500      62.13508240
I        3.12086922      39.52162500      58.38555769
I        2.09623078      41.91687500      67.26605769
I        7.31333078      41.91687500      65.94144231
I        8.33796922      39.52162500      57.06094231
I        0.33295532      39.52162500      64.19695689
I        4.88414468      41.91687500      55.31645689
I       10.10124468      41.91687500      60.13004311
I        5.55005532      39.52162500      69.01054311
I        1.70307012      44.31212500       0.02841760
I        3.51402988      46.70737500       8.90891760
I        8.73112988      46.70737500      17.73258240
I        6.92017012      44.31212500       8.85208240
I        3.12086922      44.31212500       5.10255769
I        2.09623078      46.70737500      13.98305769
I        7.31333078      46.70737500      12.65844231
I        8.33796922      44.31212500       3.77794231
I        0.33295532      44.31212500      10.91395689
I        4.88414468      46.70737500       2.03345689
I       10.10124468      46.70737500       6.84704311
I        5.55005532      44.31212500      15.72754311
I        1.70307012      44.31212500      17.78941760
I        3.51402988      46.70737500      26.66991760
I        8.73112988      46.70737500      35.49358240
I        6.92017012      44.31212500      26.61308240
I        3.12086922      44.31212500      22.86355769
I        2.09623078      46.70737500      31.74405769
I        7.31333078      46.70737500      30.41944231
I        8.33796922      44.31212500      21.53894231
I        0.33295532      44.31212500      28.67495689
I        4.88414468      46.70737500      19.79445689
I       10.10124468      46.70737500      24.60804311
I        5.55005532      44.31212500      33.48854311
I        1.70307012      44.31212500      35.55041760
I        3.51402988      46.70737500      44.43091760
I        8.73112988      46.70737500      53.25458240
I        6.92017012      44.31212500      44.37408240
I        3.12086922      44.31212500      40.62455769
I        2.09623078      46.70737500      49.50505769
I        7.31333078      46.70737500      48.18044231
I        8.33796922      44.31212500      39.29994231
I        0.33295532      44.31212500      46.43595689
I        4.88414468      46.70737500      37.55545689
I       10.10124468      46.70737500      42.36904311
I        5.55005532      44.31212500      51.24954311
I        1.70307012      44.31212500      53.31141760
I        3.51402988      46.70737500      62.19191760
I        8.73112988      46.70737500      71.01558240
I        6.92017012      44.31212500      62.13508240
I        3.12086922      44.31212500      58.38555769
I        2.09623078      46.70737500      67.26605769
I        7.31333078      46.70737500      65.94144231
I        8.33796922      44.31212500      57.06094231
I        0.33295532      44.31212500      64.19695689
I        4.88414468      46.70737500      55.31645689
I       10.10124468      46.70737500      60.13004311
I        5.55005532      44.31212500      69.01054311
I        1.70307012      49.10262500       0.02841760
I        3.51402988      51.49787500       8.90891760
I        8.73112988      51.49787500      17.73258240
I        6.92017012      49.10262500       8.85208240
I        3.12086922      49.10262500       5.10255769
I        2.09623078      51.49787500      13.98305769
I        7.31333078      51.49787500      12.65844231
I        8.33796922      49.10262500       3.77794231
I        0.33295532      49.10262500      10.91395689
I        4.88414468      51.49787500       2.03345689
I       10.10124468      51.49787500       6.84704311
I        5.55005532      49.10262500      15.72754311
I        1.70307012      49.10262500      17.78941760
I        3.51402988      51.49787500      26.66991760
I        8.73112988      51.49787500      35.49358240
I        6.92017012      49.10262500      26.61308240
I        3.12086922      49.10262500      22.86355769
I        2.09623078      51.49787500      31.74405769
I        7.31333078      51.49787500      30.41944231
I        8.33796922      49.10262500      21.53894231
I        0.33295532      49.10262500      28.67495689
I        4.88414468      51.49787500      19.79445689
I       10.10124468      51.49787500      24.60804311
I        5.55005532      49.10262500      33.48854311
I        1.70307012      49.10262500      35.55041760
I        3.51402988      51.49787500      44.43091760
I        8.73112988      51.49787500      53.25458240
I        6.92017012      49.10262500      44.37408240
I        3.12086922      49.10262500      40.62455769
I        2.09623078      51.49787500      49.50505769
I        7.31333078      51.49787500      48.18044231
I        8.33796922      49.10262500      39.29994231
I        0.33295532      49.10262500      46.43595689
I        4.88414468      51.49787500      37.55545689
I       10.10124468      51.49787500      42.36904311
I        5.55005532      49.10262500      51.24954311
I        1.70307012      49.10262500      53.31141760
I        3.51402988      51.49787500      62.19191760
I        8.73112988      51.49787500      71.01558240
I        6.92017012      49.10262500      62.13508240
I        3.12086922      49.10262500      58.38555769
I        2.09623078      51.49787500      67.26605769
I        7.31333078      51.49787500      65.94144231
I        8.33796922      49.10262500      57.06094231
I        0.33295532      49.10262500      64.19695689
I        4.88414468      51.49787500      55.31645689
I       10.10124468      51.49787500      60.13004311
I        5.55005532      49.10262500      69.01054311
I        1.70307012      53.89312500       0.02841760
I        3.51402988      56.28837500       8.90891760
I        8.73112988      56.28837500      17.73258240
I        6.92017012      53.89312500       8.85208240
I        3.12086922      53.89312500       5.10255769
I        2.09623078      56.28837500      13.98305769
I        7.31333078      56.28837500      12.65844231
I        8.33796922      53.89312500       3.77794231
I        0.33295532      53.89312500      10.91395689
I        4.88414468      56.28837500       2.03345689
I       10.10124468      56.28837500       6.84704311
I        5.55005532      53.89312500      15.72754311
I        1.70307012      53.89312500      17.78941760
I        3.51402988      56.28837500      26.66991760
I        8.73112988      56.28837500      35.49358240
I        6.92017012      53.89312500      26.61308240
I        3.12086922      53.89312500      22.86355769
I        2.09623078      56.28837500      31.74405769
I        7.31333078      56.28837500      30.41944231
I        8.33796922      53.89312500      21.53894231
I        0.33295532      53.89312500      28.67495689
I        4.88414468      56.28837500      19.79445689
I       10.10124468      56.28837500      24.60804311
I        5.55005532      53.89312500      33.48854311
I        1.70307012      53.89312500      35.55041760
I        3.51402988      56.28837500      44.43091760
I        8.73112988      56.28837500      53.25458240
I        6.92017012      53.89312500      44.37408240
I        3.12086922      53.89312500      40.62455769
I        2.09623078      56.28837500      49.50505769
I        7.31333078      56.28837500      48.18044231
I        8.33796922      53.89312500      39.29994231
I        0.33295532      53.89312500      46.43595689
I        4.88414468      56.28837500      37.55545689
I       10.10124468      56.28837500      42.36904311
I        5.55005532      53.89312500      51.24954311
I        1.70307012      53.89312500      53.31141760
I        3.51402988      56.28837500      62.19191760
I        8.73112988      56.28837500      71.01558240
I        6.92017012      53.89312500      62.13508240
I        3.12086922      53.89312500      58.38555769
I        2.09623078      56.28837500      67.26605769
I        7.31333078      56.28837500      65.94144231
I        8.33796922      53.89312500      57.06094231
I        0.33295532      53.89312500      64.19695689
I        4.88414468      56.28837500      55.31645689
I       10.10124468      56.28837500      60.13004311
I        5.55005532      53.89312500      69.01054311
I        1.70307012      58.68362500       0.02841760
I        3.51402988      61.07887500       8.90891760
I        8.73112988      61.07887500      17.73258240
I        6.92017012      58.68362500       8.85208240
I        3.12086922      58.68362500       5.10255769
I        2.09623078      61.07887500      13.98305769
I        7.31333078      61.07887500      12.65844231
I        8.33796922      58.68362500       3.77794231
I        0.33295532      58.68362500      10.91395689
I        4.88414468      61.07887500       2.03345689
I       10.10124468      61.07887500       6.84704311
I        5.55005532      58.68362500      15.72754311
I        1.70307012      58.68362500      17.78941760
I        3.51402988      61.07887500      26.66991760
I        8.73112988      61.07887500      35.49358240
I        6.92017012      58.68362500      26.61308240
I        3.12086922      58.68362500      22.86355769
I        2.09623078      61.07887500      31.74405769
I        7.31333078      61.07887500      30.41944231
I        8.33796922      58.68362500      21.53894231
I        0.33295532      58.68362500      28.67495689
I        4.88414468      61.07887500      19.79445689
I       10.10124468      61.07887500      24.60804311
I        5.55005532      58.68362500      33.48854311
I        1.70307012      58.68362500      35.55041760
I        3.51402988      61.07887500      44.43091760
I        8.73112988      61.07887500      53.25458240
I        6.92017012      58.68362500      44.37408240
I        3.12086922      58.68362500      40.62455769
I        2.09623078      61.07887500      49.50505769
I        7.31333078      61.07887500      48.18044231
I        8.33796922      58.68362500      39.29994231
I        0.33295532      58.68362500      46.43595689
I        4.88414468      61.07887500      37.55545689
I       10.10124468      61.07887500      42.36904311
I        5.55005532      58.68362500      51.24954311
I        1.70307012      58.68362500      53.31141760
I        3.51402988      61.07887500      62.19191760
I        8.73112988      61.07887500      71.01558240
I        6.92017012      58.68362500      62.13508240
I        3.12086922      58.68362500      58.38555769
I        2.09623078      61.07887500      67.26605769
I        7.31333078      61.07887500      65.94144231
I        8.33796922      58.68362500      57.06094231
I        0.33295532      58.68362500      64.19695689
I        4.88414468      61.07887500      55.31645689
I       10.10124468      61.07887500      60.13004311
I        5.55005532      58.68362500      69.01054311
I        1.70307012      63.47412500       0.02841760
I        3.51402988      65.86937500       8.90891760
I        8.73112988      65.86937500      17.73258240
I        6.92017012      63.47412500       8.85208240
I        3.12086922      63.47412500       5.10255769
I        2.09623078      65.86937500      13.98305769
I        7.31333078      65.86937500      12.65844231
I        8.33796922      63.47412500       3.77794231
I        0.33295532      63.47412500      10.91395689
I        4.88414468      65.86937500       2.03345689
I       10.10124468      65.86937500       6.84704311
I        5.55005532      63.47412500      15.72754311
I        1.70307012      63.47412500      17.78941760
I        3.51402988      65.86937500      26.66991760
I        8.73112988      65.86937500      35.49358240
I        6.92017012      63.47412500      26.61308240
I        3.12086922      63.47412500      22.86355769
I        2.09623078      65.86937500      31.74405769
I        7.31333078      65.86937500      30.41944231
I        8.33796922      63.47412500      21.53894231
I        0.33295532      63.47412500      28.67495689
I        4.88414468      65.86937500      19.79445689
I       10.10124468      65.86937500      24.60804311
I        5.55005532      63.47412500      33.48854311
I        1.70307012      63.47412500      35.55041760
I        3.51402988      65.86937500      44.43091760
I        8.73112988      65.86937500      53.25458240
I        6.92017012      63.47412500      44.37408240
I        3.12086922      63.47412500      40.62455769
I        2.09623078      65.86937500      49.50505769
I        7.31333078      65.86937500      48.18044231
I        8.33796922      63.47412500      39.29994231
I        0.33295532      63.47412500      46.43595689
I        4.88414468      65.86937500      37.55545689
I       10.10124468      65.86937500      42.36904311
I        5.55005532      63.47412500      51.24954311
I        1.70307012      63.47412500      53.31141760
I        3.51402988      65.86937500      62.19191760
I        8.73112988      65.86937500      71.01558240
I        6.92017012      63.47412500      62.13508240
I        3.12086922      63.47412500      58.38555769
I        2.09623078      65.86937500      67.26605769
I        7.31333078      65.86937500      65.94144231
I        8.33796922      63.47412500      57.06094231
I        0.33295532      63.47412500      64.19695689
I        4.88414468      65.86937500      55.31645689
I       10.10124468      65.86937500      60.13004311
I        5.55005532      63.47412500      69.01054311
I        1.70307012      68.26462500       0.02841760
I        3.51402988      70.65987500       8.90891760
I        8.73112988      70.65987500      17.73258240
I        6.92017012      68.26462500       8.85208240
I        3.12086922      68.26462500       5.10255769
I        2.09623078      70.65987500      13.98305769
I        7.31333078      70.65987500      12.65844231
I        8.33796922      68.26462500       3.77794231
I        0.33295532      68.26462500      10.91395689
I        4.88414468      70.65987500       2.03345689
I       10.10124468      70.65987500       6.84704311
I        5.55005532      68.26462500      15.72754311
I        1.70307012      68.26462500      17.78941760
I        3.51402988      70.65987500      26.66991760
I        8.73112988      70.65987500      35.49358240
I        6.92017012      68.26462500      26.61308240
I        3.12086922      68.26462500      22.86355769
I        2.09623078      70.65987500      31.74405769
I        7.31333078      70.65987500      30.41944231
I        8.33796922      68.26462500      21.53894231
I        0.33295532      68.26462500      28.67495689
I        4.88414468      70.65987500      19.79445689
I       10.10124468      70.65987500      24.60804311
I        5.55005532      68.26462500      33.48854311
I        1.70307012      68.26462500      35.55041760
I        3.51402988      70.65987500      44.43091760
I        8.73112988      70.65987500      53.25458240
I        6.92017012      68.26462500      44.37408240
I        3.12086922      68.26462500      40.62455769
I        2.09623078      70.65987500      49.50505769
I        7.31333078      70.65987500      48.18044231
I        8.33796922      68.26462500      39.29994231
I        0.33295532      68.26462500      46.43595689
I        4.88414468      70.65987500      37.55545689
I       10.10124468      70.65987500      42.36904311
I        5.55005532      68.26462500      51.24954311
I        1.70307012      68.26462500      53.31141760
I        3.51402988      70.65987500      62.19191760
I        8.73112988      70.65987500      71.01558240
I        6.92017012      68.26462500      62.13508240
I        3.12086922      68.26462500      58.38555769
I        2.09623078      70.65987500      67.26605769
I        7.31333078      70.65987500      65.94144231
I        8.33796922      68.26462500      57.06094231
I        0.33295532      68.26462500      64.19695689
I        4.88414468      70.65987500      55.31645689
I       10.10124468      70.65987500      60.13004311
I        5.55005532      68.26462500      69.01054311
I        1.70307012      73.05512500       0.02841760
I        3.51402988      75.45037500       8.90891760
I        8.73112988      75.45037500      17.73258240
I        6.92017012      73.05512500       8.85208240
I        3.12086922      73.05512500       5.10255769
I        2.09623078      75.45037500      13.98305769
I        7.31333078      75.45037500      12.65844231
I        8.33796922      73.05512500       3.77794231
I        0.33295532      73.05512500      10.91395689
I        4.88414468      75.45037500       2.03345689
I       10.10124468      75.45037500       6.84704311
I        5.55005532      73.05512500      15.72754311
I        1.70307012      73.05512500      17.78941760
I        3.51402988      75.45037500      26.66991760
I        8.73112988      75.45037500      35.49358240
I        6.92017012      73.05512500      26.61308240
I        3.12086922      73.05512500      22.86355769
I        2.09623078      75.45037500      31.74405769
I        7.31333078      75.45037500      30.41944231
I        8.33796922      73.05512500      21.53894231
I        0.33295532      73.05512500      28.67495689
I        4.88414468      75.45037500      19.79445689
I       10.10124468      75.45037500      24.60804311
I        5.55005532      73.05512500      33.48854311
I        1.70307012      73.05512500      35.55041760
I        3.51402988      75.45037500      44.43091760
I        8.73112988      75.45037500      53.25458240
I        6.92017012      73.05512500      44.37408240
I        3.12086922      73.05512500      40.62455769
I        2.09623078      75.45037500      49.50505769
I        7.31333078      75.45037500      48.18044231
I        8.33796922      73.05512500      39.29994231
I        0.33295532      73.05512500      46.43595689
I        4.88414468      75.45037500      37.55545689
I       10.10124468      75.45037500      42.36904311
I        5.55005532      73.05512500      51.24954311
I        1.70307012      73.05512500      53.31141760
I        3.51402988      75.45037500      62.19191760
I        8.73112988      75.45037500      71.01558240
I        6.92017012      73.05512500      62.13508240
I        3.12086922      73.05512500      58.38555769
I        2.09623078      75.45037500      67.26605769
I        7.31333078      75.45037500      65.94144231
I        8.33796922      73.05512500      57.06094231
I        0.33295532      73.05512500      64.19695689
I        4.88414468      75.45037500      55.31645689
I       10.10124468      75.45037500      60.13004311
I        5.55005532      73.05512500      69.01054311
I        1.70307012      77.84562500       0.02841760
I        3.51402988      80.24087500       8.90891760
I        8.73112988      80.24087500      17.73258240
I        6.92017012      77.84562500       8.85208240
I        3.12086922      77.84562500       5.10255769
I        2.09623078      80.24087500      13.98305769
I        7.31333078      80.24087500      12.65844231
I        8.33796922      77.84562500       3.77794231
I        0.33295532      77.84562500      10.91395689
I        4.88414468      80.24087500       2.03345689
I       10.10124468      80.24087500       6.84704311
I        5.55005532      77.84562500      15.72754311
I        1.70307012      77.84562500      17.78941760
I        3.51402988      80.24087500      26.66991760
I        8.73112988      80.24087500      35.49358240
I        6.92017012      77.84562500      26.61308240
I        3.12086922      77.84562500      22.86355769
I        2.09623078      80.24087500      31.74405769
I        7.31333078      80.24087500      30.41944231
I        8.33796922      77.84562500      21.53894231
I        0.33295532      77.84562500      28.67495689
I        4.88414468      80.24087500      19.79445689
I       10.10124468      80.24087500      24.60804311
I        5.55005532      77.84562500      33.48854311
I        1.70307012      77.84562500      35.55041760
I        3.51402988      80.24087500      44.43091760
I        8.73112988      80.24087500      53.25458240
I        6.92017012      77.84562500      44.37408240
I        3.12086922      77.84562500      40.62455769
I        2.09623078      80.24087500      49.50505769
I        7.31333078      80.24087500      48.18044231
I        8.33796922      77.84562500      39.29994231
I        0.33295532      77.84562500      46.43595689
I        4.88414468      80.24087500      37.55545689
I       10.10124468      80.24087500      42.36904311
I        5.55005532      77.84562500      51.24954311
I        1.70307012      77.84562500      53.31141760
I        3.51402988      80.24087500      62.19191760
I        8.73112988      80.24087500      71.01558240
I        6.92017012      77.84562500      62.13508240
I        3.12086922      77.84562500      58.38555769
I        2.09623078      80.24087500      67.26605769
I        7.31333078      80.24087500      65.94144231
I        8.33796922      77.84562500      57.06094231
I        0.33295532      77.84562500      64.19695689
I        4.88414468      80.24087500      55.31645689
I       10.10124468      80.24087500      60.13004311
I        5.55005532      77.84562500      69.01054311
I        1.70307012      82.63612500       0.02841760
I        3.51402988      85.03137500       8.90891760
I        8.73112988      85.03137500      17.73258240
I        6.92017012      82.63612500       8.85208240
I        3.12086922      82.63612500       5.10255769
I        2.09623078      85.03137500      13.98305769
I        7.31333078      85.03137500      12.65844231
I        8.33796922      82.63612500       3.77794231
I        0.33295532      82.63612500      10.91395689
I        4.88414468      85.03137500       2.03345689
I       10.10124468      85.03137500       6.84704311
I        5.55005532      82.63612500      15.72754311
I        1.70307012      82.63612500      17.78941760
I        3.51402988      85.03137500      26.66991760
I        8.73112988      85.03137500      35.49358240
I        6.92017012      82.63612500      26.61308240
I        3.12086922      82.63612500      22.86355769
I        2.09623078      85.03137500      31.74405769
I        7.31333078      85.03137500      30.41944231
I        8.33796922      82.63612500      21.53894231
I        0.33295532      82.63612500      28.67495689
I        4.88414468      85.03137500      19.79445689
I       10.10124468      85.03137500      24.60804311
I        5.55005532      82.63612500      33.48854311
I        1.70307012      82.63612500      35.55041760
I        3.51402988      85.03137500      44.43091760
I        8.73112988      85.03137500      53.25458240
I        6.92017012      82.63612500      44.37408240
I        3.12086922      82.63612500      40.62455769
I        2.09623078      85.03137500      49.50505769
I        7.31333078      85.03137500      48.18044231
I        8.33796922      82.63612500      39.29994231
I        0.33295532      82.63612500      46.43595689
I        4.88414468      85.03137500      37.55545689
I       10.10124468      85.03137500      42.36904311
I        5.55005532      82.63612500      51.24954311
I        1.70307012      82.63612500      53.31141760
I        3.51402988      85.03137500      62.19191760
I        8.73112988      85.03137500      71.01558240
I        6.92017012      82.63612500      62.13508240
I        3.12086922      82.63612500      58.38555769
I        2.09623078      85.03137500      67.26605769
I        7.31333078      85.03137500      65.94144231
I        8.33796922      82.63612500      57.06094231
I        0.33295532      82.63612500      64.19695689
I        4.88414468      85.03137500      55.31645689
I       10.10124468      85.03137500      60.13004311
I        5.55005532      82.63612500      69.01054311
I       12.13727012       1.19762500       0.02841760
I       13.94822988       3.59287500       8.90891760
I       19.16532988       3.59287500      17.73258240
I       17.35437012       1.19762500       8.85208240
I       13.55506922       1.19762500       5.10255769
I       12.53043078       3.59287500      13.98305769
I       17.74753078       3.59287500      12.65844231
I       18.77216922       1.19762500       3.77794231
I       10.76715532       1.19762500      10.91395689
I       15.31834468       3.59287500       2.03345689
I       20.53544468       3.59287500       6.84704311
I       15.98425532       1.19762500      15.72754311
I       12.13727012       1.19762500      17.78941760
I       13.94822988       3.59287500      26.66991760
I       19.16532988       3.59287500      35.49358240
I       17.35437012       1.19762500      26.61308240
I       13.55506922       1.19762500      22.86355769
I       12.53043078       3.59287500      31.74405769
I       17.74753078       3.59287500      30.41944231
I       18.77216922       1.19762500      21.53894231
I       10.76715532       1.19762500      28.67495689
I       15.31834468       3.59287500      19.79445689
I       20.53544468       3.59287500      24.60804311
I       15.98425532       1.19762500      33.48854311
I       12.13727012       1.19762500      35.55041760
I       13.94822988       3.59287500      44.43091760
I       19.16532988       3.59287500      53.25458240
I       17.35437012       1.19762500      44.37408240
I       13.55506922       1.19762500      40.62455769
I       12.53043078       3.59287500      49.50505769
I       17.74753078       3.59287500      48.18044231
I       18.77216922       1.19762500      39.29994231
I       10.76715532       1.19762500      46.43595689
I       15.31834468       3.59287500      37.55545689
I       20.53544468       3.59287500      42.36904311
I       15.98425532       1.19762500      51.24954311
I       12.13727012       1.19762500      53.31141760
I       13.94822988       3.59287500      62.19191760
I       19.16532988       3.59287500      71.01558240
I       17.35437012       1.19762500      62.13508240
I       13.55506922       1.19762500      58.38555769
I       12.53043078       3.59287500      67.26605769
I       17.74753078       3.59287500      65.94144231
I       18.77216922       1.19762500      57.06094231
I       10.76715532       1.19762500      64.19695689
I       15.31834468       3.59287500      55.31645689
I       20.53544468       3.59287500      60.13004311
I       15.98425532       1.19762500      69.01054311
I       12.13727012       5.98812500       0.02841760
I       13.94822988       8.38337500       8.90891760
I       19.16532988       8.38337500      17.73258240
I       17.35437012       5.98812500       8.85208240
I       13.55506922       5.98812500       5.10255769
I       12.53043078       8.38337500      13.98305769
I       17.74753078       8.38337500      12.65844231
I       18.77216922       5.98812500       3.77794231
I       10.76715532       5.98812500      10.91395689
I       15.31834468       8.38337500       2.03345689
I       20.53544468       8.38337500       6.84704311
I       15.98425532       5.98812500      15.72754311
I       12.13727012       5.98812500      17.78941760
I       13.94822988       8.38337500      26.66991760
I       19.16532988       8.38337500      35.49358240
I       17.35437012       5.98812500      26.61308240
I       13.55506922       5.98812500      22.86355769
I       12.53043078       8.38337500      31.74405769
I       17.74753078       8.38337500      30.41944231
I       18.77216922       5.98812500      21.53894231
I       10.76715532       5.98812500      28.67495689
I       15.31834468       8.38337500      19.79445689
I       20.53544468       8.38337500      24.60804311
I       15.98425532       5.98812500      33.48854311
I       12.13727012       5.98812500      35.55041760
I       13.94822988       8.38337500      44.43091760
I       19.16532988       8.38337500      53.25458240
I       17.35437012       5.98812500      44.37408240
I       13.55506922       5.98812500      40.62455769
I       12.53043078       8.38337500      49.50505769
I       17.74753078       8.38337500      48.18044231
I       18.77216922       5.98812500      39.29994231
I       10.76715532       5.98812500      46.43595689
I       15.31834468       8.38337500      37.55545689
I       20.53544468       8.38337500      42.36904311
I       15.98425532       5.98812500      51.24954311
I       12.13727012       5.98812500      53.31141760
I       13.94822988       8.38337500      62.19191760
I       19.16532988       8.38337500      71.01558240
I       17.35437012       5.98812500      62.13508240
I       13.55506922       5.98812500      58.38555769
I       12.53043078       8.38337500      67.26605769
I       17.74753078       8.38337500      65.94144231
I       18.77216922       5.98812500      57.06094231
I       10.76715532       5.98812500      64.19695689
I       15.31834468       8.38337500      55.31645689
I       20.53544468       8.38337500      60.13004311
I       15.98425532       5.98812500      69.01054311
I       12.13727012      10.77862500       0.02841760
I       13.94822988      13.17387500       8.90891760
I       19.16532988      13.17387500      17.73258240
I       17.35437012      10.77862500       8.85208240
I       13.55506922      10.77862500       5.10255769
I       12.53043078      13.17387500      13.98305769
I       17.74753078      13.17387500      12.65844231
I       18.77216922      10.77862500       3.77794231
I       10.76715532      10.77862500      10.91395689
I       15.31834468      13.17387500       2.03345689
I       20.53544468      13.17387500       6.84704311
I       15.98425532      10.77862500      15.72754311
I       12.13727012      10.77862500      17.78941760
I       13.94822988      13.17387500      26.66991760
I       19.16532988      13.17387500      35.49358240
I       17.35437012      10.77862500      26.61308240
I       13.55506922      10.77862500      22.86355769
I       12.53043078      13.17387500      31.74405769
I       17.74753078      13.17387500      30.41944231
I       18.77216922      10.77862500      21.53894231
I       10.76715532      10.77862500      28.67495689
I       15.31834468      13.17387500      19.79445689
I       20.53544468      13.17387500      24.60804311
I       15.98425532      10.77862500      33.48854311
I       12.13727012      10.77862500      35.55041760
I       13.94822988      13.17387500      44.43091760
I       19.16532988      13.17387500      53.25458240
I       17.35437012      10.77862500      44.37408240
I       13.55506922      10.77862500      40.62455769
I       12.53043078      13.17387500      49.50505769
I       17.74753078      13.17387500      48.18044231
I       18.77216922      10.77862500      39.29994231
I       10.76715532      10.77862500      46.43595689
I       15.31834468      13.17387500      37.55545689
I       20.53544468      13.17387500      42.36904311
I       15.98425532      10.77862500      51.24954311
I       12.13727012      10.77862500      53.31141760
I       13.94822988      13.17387500      62.19191760
I       19.16532988      13.17387500      71.01558240
I       17.35437012      10.77862500      62.13508240
I       13.55506922      10.77862500      58.38555769
I       12.53043078      13.17387500      67.26605769
I       17.74753078      13.17387500      65.94144231
I       18.77216922      10.77862500      57.06094231
I       10.76715532      10.77862500      64.19695689
I       15.31834468      13.17387500      55.31645689
I       20.53544468      13.17387500      60.13004311
I       15.98425532      10.77862500      69.01054311
I       12.13727012      15.56912500       0.02841760
I       13.94822988      17.96437500       8.90891760
I       19.16532988      17.96437500      17.73258240
I       17.35437012      15.56912500       8.85208240
I       13.55506922      15.56912500       5.10255769
I       12.53043078      17.96437500      13.98305769
I       17.74753078      17.96437500      12.65844231
I       18.77216922      15.56912500       3.77794231
I       10.76715532      15.56912500      10.91395689
I       15.31834468      17.96437500       2.03345689
I       20.53544468      17.96437500       6.84704311
I       15.98425532      15.56912500      15.72754311
I       12.13727012      15.56912500      17.78941760
I       13.94822988      17.96437500      26.66991760
I       19.16532988      17.96437500      35.49358240
I       17.35437012      15.56912500      26.61308240
I       13.55506922      15.56912500      22.86355769
I       12.53043078      17.96437500      31.74405769
I       17.74753078      17.96437500      30.41944231
I       18.77216922      15.56912500      21.53894231
I       10.76715532      15.56912500      28.67495689
I       15.31834468      17.96437500      19.79445689
I       20.53544468      17.96437500      24.60804311
I       15.98425532      15.56912500      33.48854311
I       12.13727012      15.56912500      35.55041760
I       13.94822988      17.96437500      44.43091760
I       19.16532988      17.96437500      53.25458240
I       17.35437012      15.56912500      44.37408240
I       13.55506922      15.56912500      40.62455769
I       12.53043078      17.96437500      49.50505769
I       17.74753078      17.96437500      48.18044231
I       18.77216922      15.56912500      39.29994231
I       10.76715532      15.56912500      46.43595689
I       15.31834468      17.96437500      37.55545689
I       20.53544468      17.96437500      42.36904311
I       15.98425532      15.56912500      51.24954311
I       12.13727012      15.56912500      53.31141760
I       13.94822988      17.96437500      62.19191760
I       19.16532988      17.96437500      71.01558240
I       17.35437012      15.56912500      62.13508240
I       13.55506922      15.56912500      58.38555769
I       12.53043078      17.96437500      67.26605769
I       17.74753078      17.96437500      65.94144231
I       18.77216922      15.56912500      57.06094231
I       10.76715532      15.56912500      64.19695689
I       15.31834468      17.96437500      55.31645689
I       20.53544468      17.96437500      60.13004311
I       15.98425532      15.56912500      69.01054311
I       12.13727012      20.35962500       0.02841760
I       13.94822988      22.75487500       8.90891760
I       19.16532988      22.75487500      17.73258240
I       17.35437012      20.35962500       8.85208240
I       13.55506922      20.35962500       5.10255769
I       12.53043078      22.75487500      13.98305769
I       17.74753078      22.75487500      12.65844231
I       18.77216922      20.35962500       3.77794231
I       10.76715532      20.35962500      10.91395689
I       15.31834468      22.75487500       2.03345689
I       20.53544468      22.75487500       6.84704311
I       15.98425532      20.35962500      15.72754311
I       12.13727012      20.35962500      17.78941760
I       13.94822988      22.75487500      26.66991760
I       19.16532988      22.75487500      35.49358240
I       17.35437012      20.35962500      26.61308240
I       13.55506922      20.35962500      22.86355769
I       12.53043078      22.75487500      31.74405769
I       17.74753078      22.75487500      30.41944231
I       18.77216922      20.35962500      21.53894231
I       10.76715532      20.35962500      28.67495689
I       15.31834468      22.75487500      19.79445689
I       20.53544468      22.75487500      24.60804311
I       15.98425532      20.35962500      33.48854311
I       12.13727012      20.35962500      35.55041760
I       13.94822988      22.75487500      44.43091760
I       19.16532988      22.75487500      53.25458240
I       17.35437012      20.35962500      44.37408240
I       13.55506922      20.35962500      40.62455769
I       12.53043078      22.75487500      49.50505769
I       17.74753078      22.75487500      48.18044231
I       18.77216922      20.35962500      39.29994231
I       10.76715532      20.35962500      46.43595689
I       15.31834468      22.75487500      37.55545689
I       20.53544468      22.75487500      42.36904311
I       15.98425532      20.35962500      51.24954311
I       12.13727012      20.35962500      53.31141760
I       13.94822988      22.75487500      62.19191760
I       19.16532988      22.75487500      71.01558240
I       17.35437012      20.35962500      62.13508240
I       13.55506922      20.35962500      58.38555769
I       12.53043078      22.75487500      67.26605769
I       17.74753078      22.75487500      65.94144231
I       18.77216922      20.35962500      57.06094231
I       10.76715532      20.35962500      64.19695689
I       15.31834468      22.75487500      55.31645689
I       20.53544468      22.75487500      60.13004311
I       15.98425532      20.35962500      69.01054311
I       12.13727012      25.15012500       0.02841760
I       13.94822988      27.54537500       8.90891760
I       19.16532988      27.54537500      17.73258240
I       17.35437012      25.15012500       8.85208240
I       13.55506922      25.15012500       5.10255769
I       12.53043078      27.54537500      13.98305769
I       17.74753078      27.54537500      12.65844231
I       18.77216922      25.15012500       3.77794231
I       10.76715532      25.15012500      10.91395689
I       15.31834468      27.54537500       2.03345689
I       20.53544468      27.54537500       6.84704311
I       15.98425532      25.15012500      15.72754311
I       12.13727012      25.15012500      17.78941760
I       13.94822988      27.54537500      26.66991760
I       19.16532988      27.54537500      35.49358240
I       17.35437012      25.15012500      26.61308240
I       13.55506922      25.15012500      22.86355769
I       12.53043078      27.54537500      31.74405769
I       17.74753078      27.54537500      30.41944231
I       18.77216922      25.15012500      21.53894231
I       10.76715532      25.15012500      28.67495689
I       15.31834468      27.54537500      19.79445689
I       20.53544468      27.54537500      24.60804311
I       15.98425532      25.15012500      33.48854311
I       12.13727012      25.15012500      35.55041760
I       13.94822988      27.54537500      44.43091760
I       19.16532988      27.54537500      53.25458240
I       17.35437012      25.15012500      44.37408240
I       13.55506922      25.15012500      40.62455769
I       12.53043078      27.54537500      49.50505769
I       17.74753078      27.54537500      48.18044231
I       18.77216922      25.15012500      39.29994231
I       10.76715532      25.15012500      46.43595689
I       15.31834468      27.54537500      37.55545689
I       20.53544468      27.54537500      42.36904311
I       15.98425532      25.15012500      51.24954311
I       12.13727012      25.15012500      53.31141760
I       13.94822988      27.54537500      62.19191760
I       19.16532988      27.54537500      71.01558240
I       17.35437012      25.15012500      62.13508240
I       13.55506922      25.15012500      58.38555769
I       12.53043078      27.54537500      67.26605769
I       17.74753078      27.54537500      65.94144231
I       18.77216922      25.15012500      57.06094231
I       10.76715532      25.15012500      64.19695689
I       15.31834468      27.54537500      55.31645689
I       20.53544468      27.54537500      60.13004311
I       15.98425532      25.15012500      69.01054311
I       12.13727012      29.94062500       0.02841760
I       13.94822988      32.33587500       8.90891760
I       19.16532988      32.33587500      17.73258240
I       17.35437012      29.94062500       8.85208240
I       13.55506922      29.94062500       5.10255769
I       12.53043078      32.33587500      13.98305769
I       17.74753078      32.33587500      12.65844231
I       18.77216922      29.94062500       3.77794231
I       10.76715532      29.94062500      10.91395689
I       15.31834468      32.33587500       2.03345689
I       20.53544468      32.33587500       6.84704311
I       15.98425532      29.94062500      15.72754311
I       12.13727012      29.94062500      17.78941760
I       13.94822988      32.33587500      26.66991760
I       19.16532988      32.33587500      35.49358240
I       17.35437012      29.94062500      26.61308240
I       13.55506922      29.94062500      22.86355769
I       12.53043078      32.33587500      31.74405769
I       17.74753078      32.33587500      30.41944231
I       18.77216922      29.94062500      21.53894231
I       10.76715532      29.94062500      28.67495689
I       15.31834468      32.33587500      19.79445689
I       20.53544468      32.33587500      24.60804311
I       15.98425532      29.94062500      33.48854311
I       12.13727012      29.94062500      35.55041760
I       13.94822988      32.33587500      44.43091760
I       19.16532988      32.33587500      53.25458240
I       17.35437012      29.94062500      44.37408240
I       13.55506922      29.94062500      40.62455769
I       12.53043078      32.33587500      49.50505769
I       17.74753078      32.33587500      48.18044231
I       18.77216922      29.94062500      39.29994231
I       10.76715532      29.94062500      46.43595689
I       15.31834468      32.33587500      37.55545689
I       20.53544468      32.33587500      42.36904311
I       15.98425532      29.94062500      51.24954311
I       12.13727012      29.94062500      53.31141760
I       13.94822988      32.33587500      62.19191760
I       19.16532988      32.33587500      71.01558240
I       17.35437012      29.94062500      62.13508240
I       13.55506922      29.94062500      58.38555769
I       12.53043078      32.33587500      67.26605769
I       17.74753078      32.33587500      65.94144231
I       18.77216922      29.94062500      57.06094231
I       10.76715532      29.94062500      64.19695689
I       15.31834468      32.33587500      55.31645689
I       20.53544468      32.33587500      60.13004311
I       15.98425532      29.94062500      69.01054311
I       12.13727012      34.73112500       0.02841760
I       13.94822988      37.12637500       8.90891760
I       19.16532988      37.12637500      17.73258240
I       17.35437012      34.73112500       8.85208240
I       13.55506922      34.73112500       5.10255769
I       12.53043078      37.12637500      13.98305769
I       17.74753078      37.12637500      12.65844231
I       18.77216922      34.73112500       3.77794231
I       10.76715532      34.73112500      10.91395689
I       15.31834468      37.12637500       2.03345689
I       20.53544468      37.12637500       6.84704311
I       15.98425532      34.73112500      15.72754311
I       12.13727012      34.73112500      17.78941760
I       13.94822988      37.12637500      26.66991760
I       19.16532988      37.12637500      35.49358240
I       17.35437012      34.73112500      26.61308240
I       13.55506922      34.73112500      22.86355769
I       12.53043078      37.12637500      31.74405769
I       17.74753078      37.12637500      30.41944231
I       18.77216922      34.73112500      21.53894231
I       10.76715532      34.73112500      28.67495689
I       15.31834468      37.12637500      19.79445689
I       20.53544468      37.12637500      24.60804311
I       15.98425532      34.73112500      33.48854311
I       12.13727012      34.73112500      35.55041760
I       13.94822988      37.12637500      44.43091760
I       19.16532988      37.12637500      53.25458240
I       17.35437012      34.73112500      44.37408240
I       13.55506922      34.73112500      40.62455769
I       12.53043078      37.12637500      49.50505769
I       17.74753078      37.12637500      48.18044231
I       18.77216922      34.73112500      39.29994231
I       10.76715532      34.73112500      46.43595689
I       15.31834468      37.12637500      37.55545689
I       20.53544468      37.12637500      42.36904311
I       15.98425532      34.73112500      51.24954311
I       12.13727012      34.73112500      53.31141760
I       13.94822988      37.12637500      62.19191760
I       19.16532988      37.12637500      71.01558240
I       17.35437012      34.73112500      62.13508240
I       13.55506922      34.73112500      58.38555769
I       12.53043078      37.12637500      67.26605769
I       17.74753078      37.12637500      65.94144231
I       18.77216922      34.73112500      57.06094231
I       10.76715532      34.73112500      64.19695689
I       15.31834468      37.12637500      55.31645689
I       20.53544468      37.12637500      60.13004311
I       15.98425532      34.73112500      69.01054311
I       12.13727012      39.52162500       0.02841760
I       13.94822988      41.91687500       8.90891760
I       19.16532988      41.91687500      17.73258240
I       17.35437012      39.52162500       8.85208240
I       13.55506922      39.52162500       5.10255769
I       12.53043078      41.91687500      13.98305769
I       17.74753078      41.91687500      12.65844231
I       18.77216922      39.52162500       3.77794231
I       10.76715532      39.52162500      10.91395689
I       15.31834468      41.91687500       2.03345689
I       20.53544468      41.91687500       6.84704311
I       15.98425532      39.52162500      15.72754311
I       12.13727012      39.52162500      17.78941760
I       13.94822988      41.91687500      26.66991760
I       19.16532988      41.91687500      35.49358240
I       17.35437012      39.52162500      26.61308240
I       13.55506922      39.52162500      22.86355769
I       12.53043078      41.91687500      31.74405769
I       17.74753078      41.91687500      30.41944231
I       18.77216922      39.52162500      21.53894231
I       10.76715532      39.52162500      28.67495689
I       15.31834468      41.91687500      19.79445689
I       20.53544468      41.91687500      24.60804311
I       15.98425532      39.52162500      33.48854311
I       12.13727012      39.52162500      35.55041760
I       13.94822988      41.91687500      44.43091760
I       19.16532988      41.91687500      53.25458240
I       17.35437012      39.52162500      44.37408240
I       13.55506922      39.52162500      40.62455769
I       12.53043078      41.91687500      49.50505769
I       17.74753078      41.91687500      48.18044231
I       18.77216922      39.52162500      39.29994231
I       10.76715532      39.52162500      46.43595689
I       15.31834468      41.91687500      37.55545689
I       20.53544468      41.91687500      42.36904311
I       15.98425532      39.52162500      51.24954311
I       12.13727012      39.52162500      53.31141760
I       13.94822988      41.91687500      62.19191760
I       19.16532988      41.91687500      71.01558240
I       17.35437012      39.52162500      62.13508240
I       13.55506922      39.52162500      58.38555769
I       12.53043078      41.91687500      67.26605769
I       17.74753078      41.91687500      65.94144231
I       18.77216922      39.52162500      57.06094231
I       10.76715532      39.52162500      64.19695689
I       15.31834468      41.91687500      55.31645689
I       20.53544468      41.91687500      60.13004311
I       15.98425532      39.52162500      69.01054311
I       12.13727012      44.31212500       0.02841760
I       13.94822988      46.70737500       8.90891760
I       19.16532988      46.70737500      17.73258240
I       17.35437012      44.31212500       8.85208240
I       13.55506922      44.31212500       5.10255769
I       12.53043078      46.70737500      13.98305769
I       17.74753078      46.70737500      12.65844231
I       18.77216922      44.31212500       3.77794231
I       10.76715532      44.31212500      10.91395689
I       15.31834468      46.70737500       2.03345689
I       20.53544468      46.70737500       6.84704311
I       15.98425532      44.31212500      15.72754311
I       12.13727012      44.31212500      17.78941760
I       13.94822988      46.70737500      26.66991760
I       19.16532988      46.70737500      35.49358240
I       17.35437012      44.31212500      26.61308240
I       13.55506922      44.31212500      22.86355769
I       12.53043078      46.70737500      31.74405769
I       17.74753078      46.70737500      30.41944231
I       18.77216922      44.31212500      21.53894231
I       10.76715532      44.31212500      28.67495689
I       15.31834468      46.70737500      19.79445689
I       20.53544468      46.70737500      24.60804311
I       15.98425532      44.31212500      33.48854311
I       12.13727012      44.31212500      35.55041760
I       13.94822988      46.70737500      44.43091760
I       19.16532988      46.70737500      53.25458240
I       17.35437012      44.31212500      44.37408240
I       13.55506922      44.31212500      40.62455769
I       12.53043078      46.70737500      49.50505769
I       17.74753078      46.70737500      48.18044231
I       18.77216922      44.31212500      39.29994231
I       10.76715532      44.31212500      46.43595689
I       15.31834468      46.70737500      37.55545689
I       20.53544468      46.70737500      42.36904311
I       15.98425532      44.31212500      51.24954311
I       12.13727012      44.31212500      53.31141760
I       13.94822988      46.70737500      62.19191760
I       19.16532988      46.70737500      71.01558240
I       17.35437012      44.31212500      62.13508240
I       13.55506922      44.31212500      58.38555769
I       12.53043078      46.70737500      67.26605769
I       17.74753078      46.70737500      65.94144231
I       18.77216922      44.31212500      57.06094231
I       10.76715532      44.31212500      64.19695689
I       15.31834468      46.70737500      55.31645689
I       20.53544468      46.70737500      60.13004311
I       15.98425532      44.31212500      69.01054311
I       12.13727012      49.10262500       0.02841760
I       13.94822988      51.49787500       8.90891760
I       19.16532988      51.49787500      17.73258240
I       17.35437012      49.10262500       8.85208240
I       13.55506922      49.10262500       5.10255769
I       12.53043078      51.49787500      13.98305769
I       17.74753078      51.49787500      12.65844231
I       18.77216922      49.10262500       3.77794231
I       10.76715532      49.10262500      10.91395689
I       15.31834468      51.49787500       2.03345689
I       20.53544468      51.49787500       6.84704311
I       15.98425532      49.10262500      15.72754311
I       12.13727012      49.10262500      17.78941760
I       13.94822988      51.49787500      26.66991760
I       19.16532988      51.49787500      35.49358240
I       17.35437012      49.10262500      26.61308240
I       13.55506922      49.10262500      22.86355769
I       12.53043078      51.49787500      31.74405769
I       17.74753078      51.49787500      30.41944231
I       18.77216922      49.10262500      21.53894231
I       10.76715532      49.10262500      28.67495689
I       15.31834468      51.49787500      19.79445689
I       20.53544468      51.49787500      24.60804311
I       15.98425532      49.10262500      33.48854311
I       12.13727012      49.10262500      35.55041760
I       13.94822988      51.49787500      44.43091760
I       19.16532988      51.49787500      53.25458240
I       17.35437012      49.10262500      44.37408240
I       13.55506922      49.10262500      40.62455769
I       12.53043078      51.49787500      49.50505769
I       17.74753078      51.49787500      48.18044231
I       18.77216922      49.10262500      39.29994231
I       10.76715532      49.10262500      46.43595689
I       15.31834468      51.49787500      37.55545689
I       20.53544468      51.49787500      42.36904311
I       15.98425532      49.10262500      51.24954311
I       12.13727012      49.10262500      53.31141760
I       13.94822988      51.49787500      62.19191760
I       19.16532988      51.49787500      71.01558240
I       17.35437012      49.10262500      62.13508240
I       13.55506922      49.10262500      58.38555769
I       12.53043078      51.49787500      67.26605769
I       17.74753078      51.49787500      65.94144231
I       18.77216922      49.10262500      57.06094231
I       10.76715532      49.10262500      64.19695689
I       15.31834468      51.49787500      55.31645689
I       20.53544468      51.49787500      60.13004311
I       15.98425532      49.10262500      69.01054311
I       12.13727012      53.89312500       0.02841760
I       13.94822988      56.28837500       8.90891760
I       19.16532988      56.28837500      17.73258240
I       17.35437012      53.89312500       8.85208240
I       13.55506922      53.89312500       5.10255769
I       12.53043078      56.28837500      13.98305769
I       17.74753078      56.28837500      12.65844231
I       18.77216922      53.89312500       3.77794231
I       10.76715532      53.89312500      10.91395689
I       15.31834468      56.28837500       2.03345689
I       20.53544468      56.28837500       6.84704311
I       15.98425532      53.89312500      15.72754311
I       12.13727012      53.89312500      17.78941760
I       13.94822988      56.28837500      26.66991760
I       19.16532988      56.28837500      35.49358240
I       17.35437012      53.89312500      26.61308240
I       13.55506922      53.89312500      22.86355769
I       12.53043078      56.28837500      31.74405769
I       17.74753078      56.28837500      30.41944231
I       18.77216922      53.89312500      21.53894231
I       10.76715532      53.89312500      28.67495689
I       15.31834468      56.28837500      19.79445689
I       20.53544468      56.28837500      24.60804311
I       15.98425532      53.89312500      33.48854311
I       12.13727012      53.89312500      35.55041760
I       13.94822988      56.28837500      44.43091760
I       19.16532988      56.28837500      53.25458240
I       17.35437012      53.89312500      44.37408240
I       13.55506922      53.89312500      40.62455769
I       12.53043078      56.28837500      49.50505769
I       17.74753078      56.28837500      48.18044231
I       18.77216922      53.89312500      39.29994231
I       10.76715532      53.89312500      46.43595689
I       15.31834468      56.28837500      37.55545689
I       20.53544468      56.28837500      42.36904311
I       15.98425532      53.89312500      51.24954311
I       12.13727012      53.89312500      53.31141760
I       13.94822988      56.28837500      62.19191760
I       19.16532988      56.28837500      71.01558240
I       17.35437012      53.89312500      62.13508240
I       13.55506922      53.89312500      58.38555769
I       12.53043078      56.28837500      67.26605769
I       17.74753078      56.28837500      65.94144231
I       18.77216922      53.89312500      57.06094231
I       10.76715532      53.89312500      64.19695689
I       15.31834468      56.28837500      55.31645689
I       20.53544468      56.28837500      60.13004311
I       15.98425532      53.89312500      69.01054311
I       12.13727012      58.68362500       0.02841760
I       13.94822988      61.07887500       8.90891760
I       19.16532988      61.07887500      17.73258240
I       17.35437012      58.68362500       8.85208240
I       13.55506922      58.68362500       5.10255769
I       12.53043078      61.07887500      13.98305769
I       17.74753078      61.07887500      12.65844231
I       18.77216922      58.68362500       3.77794231
I       10.76715532      58.68362500      10.91395689
I       15.31834468      61.07887500       2.03345689
I       20.53544468      61.07887500       6.84704311
I       15.98425532      58.68362500      15.72754311
I       12.13727012      58.68362500      17.78941760
I       13.94822988      61.07887500      26.66991760
I       19.16532988      61.07887500      35.49358240
I       17.35437012      58.68362500      26.61308240
I       13.55506922      58.68362500      22.86355769
I       12.53043078      61.07887500      31.74405769
I       17.74753078      61.07887500      30.41944231
I       18.77216922      58.68362500      21.53894231
I       10.76715532      58.68362500      28.67495689
I       15.31834468      61.07887500      19.79445689
I       20.53544468      61.07887500      24.60804311
I       15.98425532      58.68362500      33.48854311
I       12.13727012      58.68362500      35.55041760
I       13.94822988      61.07887500      44.43091760
I       19.16532988      61.07887500      53.25458240
I       17.35437012      58.68362500      44.37408240
I       13.55506922      58.68362500      40.62455769
I       12.53043078      61.07887500      49.50505769
I       17.74753078      61.07887500      48.18044231
I       18.77216922      58.68362500      39.29994231
I       10.76715532      58.68362500      46.43595689
I       15.31834468      61.07887500      37.55545689
I       20.53544468      61.07887500      42.36904311
I       15.98425532      58.68362500      51.24954311
I       12.13727012      58.68362500      53.31141760
I       13.94822988      61.07887500      62.19191760
I       19.16532988      61.07887500      71.01558240
I       17.35437012      58.68362500      62.13508240
I       13.55506922      58.68362500      58.38555769
I       12.53043078      61.07887500      67.26605769
I       17.74753078      61.07887500      65.94144231
I       18.77216922      58.68362500      57.06094231
I       10.76715532      58.68362500      64.19695689
I       15.31834468      61.07887500      55.31645689
I       20.53544468      61.07887500      60.13004311
I       15.98425532      58.68362500      69.01054311
I       12.13727012      63.47412500       0.02841760
I       13.94822988      65.86937500       8.90891760
I       19.16532988      65.86937500      17.73258240
I       17.35437012      63.47412500       8.85208240
I       13.55506922      63.47412500       5.10255769
I       12.53043078      65.86937500      13.98305769
I       17.74753078      65.86937500      12.65844231
I       18.77216922      63.47412500       3.77794231
I       10.76715532      63.47412500      10.91395689
I       15.31834468      65.86937500       2.03345689
I       20.53544468      65.86937500       6.84704311
I       15.98425532      63.47412500      15.72754311
I       12.13727012      63.47412500      17.78941760
I       13.94822988      65.86937500      26.66991760
I       19.16532988      65.86937500      35.49358240
I       17.35437012      63.47412500      26.61308240
I       13.55506922      63.47412500      22.86355769
I       12.53043078      65.86937500      31.74405769
I       17.74753078      65.86937500      30.41944231
I       18.77216922      63.47412500      21.53894231
I       10.76715532      63.47412500      28.67495689
I       15.31834468      65.86937500      19.79445689
I       20.53544468      65.86937500      24.60804311
I       15.98425532      63.47412500      33.48854311
I       12.13727012      63.47412500      35.55041760
I       13.94822988      65.86937500      44.43091760
I       19.16532988      65.86937500      53.25458240
I       17.35437012      63.47412500      44.37408240
I       13.55506922      63.47412500      40.62455769
I       12.53043078      65.86937500      49.50505769
I       17.74753078      65.86937500      48.18044231
I       18.77216922      63.47412500      39.29994231
I       10.76715532      63.47412500      46.43595689
I       15.31834468      65.86937500      37.55545689
I       20.53544468      65.86937500      42.36904311
I       15.98425532      63.47412500      51.24954311
I       12.13727012      63.47412500      53.31141760
I       13.94822988      65.86937500      62.19191760
I       19.16532988      65.86937500      71.01558240
I       17.35437012      63.47412500      62.13508240
I       13.55506922      63.47412500      58.38555769
I       12.53043078      65.86937500      67.26605769
I       17.74753078      65.86937500      65.94144231
I       18.77216922      63.47412500      57.06094231
I       10.76715532      63.47412500      64.19695689
I       15.31834468      65.86937500      55.31645689
I       20.53544468      65.86937500      60.13004311
I       15.98425532      63.47412500      69.01054311
I       12.13727012      68.26462500       0.02841760
I       13.94822988      70.65987500       8.90891760
I       19.16532988      70.65987500      17.73258240
I       17.35437012      68.26462500       8.85208240
I       13.55506922      68.26462500       5.10255769
I       12.53043078      70.65987500      13.98305769
I       17.74753078      70.65987500      12.65844231
I       18.77216922      68.26462500       3.77794231
I       10.76715532      68.26462500      10.91395689
I       15.31834468      70.65987500       2.03345689
I       20.53544468      70.65987500       6.84704311
I       15.98425532      68.26462500      15.72754311
I       12.13727012      68.26462500      17.78941760
I       13.94822988      70.65987500      26.66991760
I       19.16532988      70.65987500      35.49358240
I       17.35437012      68.26462500      26.61308240
I       13.55506922      68.26462500      22.86355769
I       12.53043078      70.65987500      31.74405769
I       17.74753078      70.65987500      30.41944231
I       18.77216922      68.26462500      21.53894231
I       10.76715532      68.26462500      28.67495689
I       15.31834468      70.65987500      19.79445689
I       20.53544468      70.65987500      24.60804311
I       15.98425532      68.26462500      33.48854311
I       12.13727012      68.26462500      35.55041760
I       13.94822988      70.65987500      44.43091760
I       19.16532988      70.65987500      53.25458240
I       17.35437012      68.26462500      44.37408240
I       13.55506922      68.26462500      40.62455769
I       12.53043078      70.65987500      49.50505769
I       17.74753078      70.65987500      48.18044231
I       18.77216922      68.26462500      39.29994231
I       10.76715532      68.26462500      46.43595689
I       15.31834468      70.65987500      37.55545689
I       20.53544468      70.65987500      42.36904311
I       15.98425532      68.26462500      51.24954311
I       12.13727012      68.26462500      53.31141760
I       13.94822988      70.65987500      62.19191760
I       19.16532988      70.65987500      71.01558240
I       17.35437012      68.26462500      62.13508240
I       13.55506922      68.26462500      58.38555769
I       12.53043078      70.65987500      67.26605769
I       17.74753078      70.65987500      65.94144231
I       18.77216922      68.26462500      57.06094231
I       10.76715532      68.26462500      64.19695689
I       15.31834468      70.65987500      55.31645689
I       20.53544468      70.65987500      60.13004311
I       15.98425532      68.26462500      69.01054311
I       12.13727012      73.05512500       0.02841760
I       13.94822988      75.45037500       8.90891760
I       19.16532988      75.45037500      17.73258240
I       17.35437012      73.05512500       8.85208240
I       13.55506922      73.05512500       5.10255769
I       12.53043078      75.45037500      13.98305769
I       17.74753078      75.45037500      12.65844231
I       18.77216922      73.05512500       3.77794231
I       10.76715532      73.05512500      10.91395689
I       15.31834468      75.45037500       2.03345689
I       20.53544468      75.45037500       6.84704311
I       15.98425532      73.05512500      15.72754311
I       12.13727012      73.05512500      17.78941760
I       13.94822988      75.45037500      26.66991760
I       19.16532988      75.45037500      35.49358240
I       17.35437012      73.05512500      26.61308240
I       13.55506922      73.05512500      22.86355769
I       12.53043078      75.45037500      31.74405769
I       17.74753078      75.45037500      30.41944231
I       18.77216922      73.05512500      21.53894231
I       10.76715532      73.05512500      28.67495689
I       15.31834468      75.45037500      19.79445689
I       20.53544468      75.45037500      24.60804311
I       15.98425532      73.05512500      33.48854311
I       12.13727012      73.05512500      35.55041760
I       13.94822988      75.45037500      44.43091760
I       19.16532988      75.45037500      53.25458240
I       17.35437012      73.05512500      44.37408240
I       13.55506922      73.05512500      40.62455769
I       12.53043078      75.45037500      49.50505769
I       17.74753078      75.45037500      48.18044231
I       18.77216922      73.05512500      39.29994231
I       10.76715532      73.05512500      46.43595689
I       15.31834468      75.45037500      37.55545689
I       20.53544468      75.45037500      42.36904311
I       15.98425532      73.05512500      51.24954311
I       12.13727012      73.05512500      53.31141760
I       13.94822988      75.45037500      62.19191760
I       19.16532988      75.45037500      71.01558240
I       17.35437012      73.05512500      62.13508240
I       13.55506922      73.05512500      58.38555769
I       12.53043078      75.45037500      67.26605769
I       17.74753078      75.45037500      65.94144231
I       18.77216922      73.05512500      57.06094231
I       10.76715532      73.05512500      64.19695689
I       15.31834468      75.45037500      55.31645689
I       20.53544468      75.45037500      60.13004311
I       15.98425532      73.05512500      69.01054311
I       12.13727012      77.84562500       0.02841760
I       13.94822988      80.24087500       8.90891760
I       19.16532988      80.24087500      17.73258240
I       17.35437012      77.84562500       8.85208240
I       13.55506922      77.84562500       5.10255769
I       12.53043078      80.24087500      13.98305769
I       17.74753078      80.24087500      12.65844231
I       18.77216922      77.84562500       3.77794231
I       10.76715532      77.84562500      10.91395689
I       15.31834468      80.24087500       2.03345689
I       20.53544468      80.24087500       6.84704311
I       15.98425532      77.84562500      15.72754311
I       12.13727012      77.84562500      17.78941760
I       13.94822988      80.24087500      26.66991760
I       19.16532988      80.24087500      35.49358240
I       17.35437012      77.84562500      26.61308240
I       13.55506922      77.84562500      22.86355769
I       12.53043078      80.24087500      31.74405769
I       17.74753078      80.24087500      30.41944231
I       18.77216922      77.84562500      21.53894231
I       10.76715532      77.84562500      28.67495689
I       15.31834468      80.24087500      19.79445689
I       20.53544468      80.24087500      24.60804311
I       15.98425532      77.84562500      33.48854311
I       12.13727012      77.84562500      35.55041760
I       13.94822988      80.24087500      44.43091760
I       19.16532988      80.24087500      53.25458240
I       17.35437012      77.84562500      44.37408240
I       13.55506922      77.84562500      40.62455769
I       12.53043078      80.24087500      49.50505769
I       17.74753078      80.24087500      48.18044231
I       18.77216922      77.84562500      39.29994231
I       10.76715532      77.84562500      46.43595689
I       15.31834468      80.24087500      37.55545689
I       20.53544468      80.24087500      42.36904311
I       15.98425532      77.84562500      51.24954311
I       12.13727012      77.84562500      53.31141760
I       13.94822988      80.24087500      62.19191760
I       19.16532988      80.24087500      71.01558240
I       17.35437012      77.84562500      62.13508240
I       13.55506922      77.84562500      58.38555769
I       12.53043078      80.24087500      67.26605769
I       17.74753078      80.24087500      65.94144231
I       18.77216922      77.84562500      57.06094231
I       10.76715532      77.84562500      64.19695689
I       15.31834468      80.24087500      55.31645689
I       20.53544468      80.24087500      60.13004311
I       15.98425532      77.84562500      69.01054311
I       12.13727012      82.63612500       0.02841760
I       13.94822988      85.03137500       8.90891760
I       19.16532988      85.03137500      17.73258240
I       17.35437012      82.63612500       8.85208240
I       13.55506922      82.63612500       5.10255769
I       12.53043078      85.03137500      13.98305769
I       17.74753078      85.03137500      12.65844231
I       18.77216922      82.63612500       3.77794231
I       10.76715532      82.63612500      10.91395689
I       15.31834468      85.03137500       2.03345689
I       20.53544468      85.03137500       6.84704311
I       15.98425532      82.63612500      15.72754311
I       12.13727012      82.63612500      17.78941760
I       13.94822988      85.03137500      26.66991760
I       19.16532988      85.03137500      35.49358240
I       17.35437012      82.63612500      26.61308240
I       13.55506922      82.63612500      22.86355769
I       12.53043078      85.03137500      31.74405769
I       17.74753078      85.03137500      30.41944231
I       18.77216922      82.63612500      21.53894231
I       10.76715532      82.63612500      28.67495689
I       15.31834468      85.03137500      19.79445689
I       20.53544468      85.03137500      24.60804311
I       15.98425532      82.63612500      33.48854311
I       12.13727012      82.63612500      35.55041760
I       13.94822988      85.03137500      44.43091760
I       19.16532988      85.03137500      53.25458240
I       17.35437012      82.63612500      44.37408240
I       13.55506922      82.63612500      40.62455769
I       12.53043078      85.03137500      49.50505769
I       17.74753078      85.03137500      48.18044231
I       18.77216922      82.63612500      39.29994231
I       10.76715532      82.63612500      46.43595689
I       15.31834468      85.03137500      37.55545689
I       20.53544468      85.03137500      42.36904311
I       15.98425532      82.63612500      51.24954311
I       12.13727012      82.63612500      53.31141760
I       13.94822988      85.03137500      62.19191760
I       19.16532988      85.03137500      71.01558240
I       17.35437012      82.63612500      62.13508240
I       13.55506922      82.63612500      58.38555769
I       12.53043078      85.03137500      67.26605769
I       17.74753078      85.03137500      65.94144231
I       18.77216922      82.63612500      57.06094231
I       10.76715532      82.63612500      64.19695689
I       15.31834468      85.03137500      55.31645689
I       20.53544468      85.03137500      60.13004311
I       15.98425532      82.63612500      69.01054311
I       22.57147012       1.19762500       0.02841760
I       24.38242988       3.59287500       8.90891760
I       29.59952988       3.59287500      17.73258240
I       27.78857012       1.19762500       8.85208240
I       23.98926922       1.19762500       5.10255769
I       22.96463078       3.59287500      13.98305769
I       28.18173078       3.59287500      12.65844231
I       29.20636922       1.19762500       3.77794231
I       21.20135532       1.19762500      10.91395689
I       25.75254468       3.59287500       2.03345689
I       30.96964468       3.59287500       6.84704311
I       26.41845532       1.19762500      15.72754311
I       22.57147012       1.19762500      17.78941760
I       24.38242988       3.59287500      26.66991760
I       29.59952988       3.59287500      35.49358240
I       27.78857012       1.19762500      26.61308240
I       23.98926922       1.19762500      22.86355769
I       22.96463078       3.59287500      31.74405769
I       28.18173078       3.59287500      30.41944231
I       29.20636922       1.19762500      21.53894231
I       21.20135532       1.19762500      28.67495689
I       25.75254468       3.59287500      19.79445689
I       30.96964468       3.59287500      24.60804311
I       26.41845532       1.19762500      33.48854311
I       22.57147012       1.19762500      35.55041760
I       24.38242988       3.59287500      44.43091760
I       29.59952988       3.59287500      53.25458240
I       27.78857012       1.19762500      44.37408240
I       23.98926922       1.19762500      40.62455769
I       22.96463078       3.59287500      49.50505769
I       28.18173078       3.59287500      48.18044231
I       29.20636922       1.19762500      39.29994231
I       21.20135532       1.19762500      46.43595689
I       25.75254468       3.59287500      37.55545689
I       30.96964468       3.59287500      42.36904311
I       26.41845532       1.19762500      51.24954311
I       22.57147012       1.19762500      53.31141760
I       24.38242988       3.59287500      62.19191760
I       29.59952988       3.59287500      71.01558240
I       27.78857012       1.19762500      62.13508240
I       23.98926922       1.19762500      58.38555769
I       22.96463078       3.59287500      67.26605769
I       28.18173078       3.59287500      65.94144231
I       29.20636922       1.19762500      57.06094231
I       21.20135532       1.19762500      64.19695689
I       25.75254468       3.59287500      55.31645689
I       30.96964468       3.59287500      60.13004311
I       26.41845532       1.19762500      69.01054311
I       22.57147012       5.98812500       0.02841760
I       24.38242988       8.38337500       8.90891760
I       29.59952988       8.38337500      17.73258240
I       27.78857012       5.98812500       8.85208240
I       23.98926922       5.98812500       5.10255769
I       22.96463078       8.38337500      13.98305769
I       28.18173078       8.38337500      12.65844231
I       29.20636922       5.98812500       3.77794231
I       21.20135532       5.98812500      10.91395689
I       25.75254468       8.38337500       2.03345689
I       30.96964468       8.38337500       6.84704311
I       26.41845532       5.98812500      15.72754311
I       22.57147012       5.98812500      17.78941760
I       24.38242988       8.38337500      26.66991760
I       29.59952988       8.38337500      35.49358240
I       27.78857012       5.98812500      26.61308240
I       23.98926922       5.98812500      22.86355769
I       22.96463078       8.38337500      31.74405769
I       28.18173078       8.38337500      30.41944231
I       29.20636922       5.98812500      21.53894231
I       21.20135532       5.98812500      28.67495689
I       25.75254468       8.38337500      19.79445689
I       30.96964468       8.38337500      24.60804311
I       26.41845532       5.98812500      33.48854311
I       22.57147012       5.98812500      35.55041760
I       24.38242988       8.38337500      44.43091760
I       29.59952988       8.38337500      53.25458240
I       27.78857012       5.98812500      44.37408240
I       23.98926922       5.98812500      40.62455769
I       22.96463078       8.38337500      49.50505769
I       28.18173078       8.38337500      48.18044231
I       29.20636922       5.98812500      39.29994231
I       21.20135532       5.98812500      46.43595689
I       25.75254468       8.38337500      37.55545689
I       30.96964468       8.38337500      42.36904311
I       26.41845532       5.98812500      51.24954311
I       22.57147012       5.98812500      53.31141760
I       24.38242988       8.38337500      62.19191760
I       29.59952988       8.38337500      71.01558240
I       27.78857012       5.98812500      62.13508240
I       23.98926922       5.98812500      58.38555769
I       22.96463078       8.38337500      67.26605769
I       28.18173078       8.38337500      65.94144231
I       29.20636922       5.98812500      57.06094231
I       21.20135532       5.98812500      64.19695689
I       25.75254468       8.38337500      55.31645689
I       30.96964468       8.38337500      60.13004311
I       26.41845532       5.98812500      69.01054311
I       22.57147012      10.77862500       0.02841760
I       24.38242988      13.17387500       8.90891760
I       29.59952988      13.17387500      17.73258240
I       27.78857012      10.77862500       8.85208240
I       23.98926922      10.77862500       5.10255769
I       22.96463078      13.17387500      13.98305769
I       28.18173078      13.17387500      12.65844231
I       29.20636922      10.77862500       3.77794231
I       21.20135532      10.77862500      10.91395689
I       25.75254468      13.17387500       2.03345689
I       30.96964468      13.17387500       6.84704311
I       26.41845532      10.77862500      15.72754311
I       22.57147012      10.77862500      17.78941760
I       24.38242988      13.17387500      26.66991760
I       29.59952988      13.17387500      35.49358240
I       27.78857012      10.77862500      26.61308240
I       23.98926922      10.77862500      22.86355769
I       22.96463078      13.17387500      31.74405769
I       28.18173078      13.17387500      30.41944231
I       29.20636922      10.77862500      21.53894231
I       21.20135532      10.77862500      28.67495689
I       25.75254468      13.17387500      19.79445689
I       30.96964468      13.17387500      24.60804311
I       26.41845532      10.77862500      33.48854311
I       22.57147012      10.77862500      35.55041760
I       24.38242988      13.17387500      44.43091760
I       29.59952988      13.17387500      53.25458240
I       27.78857012      10.77862500      44.37408240
I       23.98926922      10.77862500      40.62455769
I       22.96463078      13.17387500      49.50505769
I       28.18173078      13.17387500      48.18044231
I       29.20636922      10.77862500      39.29994231
I       21.20135532      10.77862500      46.43595689
I       25.75254468      13.17387500      37.55545689
I       30.96964468      13.17387500      42.36904311
I       26.41845532      10.77862500      51.24954311
I       22.57147012      10.77862500      53.31141760
I       24.38242988      13.17387500      62.19191760
I       29.59952988      13.17387500      71.01558240
I       27.78857012      10.77862500      62.13508240
I       23.98926922      10.77862500      58.38555769
I       22.96463078      13.17387500      67.26605769
I       28.18173078      13.17387500      65.94144231
I       29.20636922      10.77862500      57.06094231
I       21.20135532      10.77862500      64.19695689
I       25.75254468      13.17387500      55.31645689
I       30.96964468      13.17387500      60.13004311
I       26.41845532      10.77862500      69.01054311
I       22.57147012      15.56912500       0.02841760
I       24.38242988      17.96437500       8.90891760
I       29.59952988      17.96437500      17.73258240
I       27.78857012      15.56912500       8.85208240
I       23.98926922      15.56912500       5.10255769
I       22.96463078      17.96437500      13.98305769
I       28.18173078      17.96437500      12.65844231
I       29.20636922      15.56912500       3.77794231
I       21.20135532      15.56912500      10.91395689
I       25.75254468      17.96437500       2.03345689
I       30.96964468      17.96437500       6.84704311
I       26.41845532      15.56912500      15.72754311
I       22.57147012      15.56912500      17.78941760
I       24.38242988      17.96437500      26.66991760
I       29.59952988      17.96437500      35.49358240
I       27.78857012      15.56912500      26.61308240
I       23.98926922      15.56912500      22.86355769
I       22.96463078      17.96437500      31.74405769
I       28.18173078      17.96437500      30.41944231
I       29.20636922      15.56912500      21.53894231
I       21.20135532      15.56912500      28.67495689
I       25.75254468      17.96437500      19.79445689
I       30.96964468      17.96437500      24.60804311
I       26.41845532      15.56912500      33.48854311
I       22.57147012      15.56912500      35.55041760
I       24.38242988      17.96437500      44.43091760
I       29.59952988      17.96437500      53.25458240
I       27.78857012      15.56912500      44.37408240
I       23.98926922      15.56912500      40.62455769
I       22.96463078      17.96437500      49.50505769
I       28.18173078      17.96437500      48.18044231
I       29.20636922      15.56912500      39.29994231
I       21.20135532      15.56912500      46.43595689
I       25.75254468      17.96437500      37.55545689
I       30.96964468      17.96437500      42.36904311
I       26.41845532      15.56912500      51.24954311
I       22.57147012      15.56912500      53.31141760
I       24.38242988      17.96437500      62.19191760
I       29.59952988      17.96437500      71.01558240
I       27.78857012      15.56912500      62.13508240
I       23.98926922      15.56912500      58.38555769
I       22.96463078      17.96437500      67.26605769
I       28.18173078      17.96437500      65.94144231
I       29.20636922      15.56912500      57.06094231
I       21.20135532      15.56912500      64.19695689
I       25.75254468      17.96437500      55.31645689
I       30.96964468      17.96437500      60.13004311
I       26.41845532      15.56912500      69.01054311
I       22.57147012      20.35962500       0.02841760
I       24.38242988      22.75487500       8.90891760
I       29.59952988      22.75487500      17.73258240
I       27.78857012      20.35962500       8.85208240
I       23.98926922      20.35962500       5.10255769
I       22.96463078      22.75487500      13.98305769
I       28.18173078      22.75487500      12.65844231
I       29.20636922      20.35962500       3.77794231
I       21.20135532      20.35962500      10.91395689
I       25.75254468      22.75487500       2.03345689
I       30.96964468      22.75487500       6.84704311
I       26.41845532      20.35962500      15.72754311
I       22.57147012      20.35962500      17.78941760
I       24.38242988      22.75487500      26.66991760
I       29.59952988      22.75487500      35.49358240
I       27.78857012      20.35962500      26.61308240
I       23.98926922      20.35962500      22.86355769
I       22.96463078      22.75487500      31.74405769
I       28.18173078      22.75487500      30.41944231
I       29.20636922      20.35962500      21.53894231
I       21.20135532      20.35962500      28.67495689
I       25.75254468      22.75487500      19.79445689
I       30.96964468      22.75487500      24.60804311
I       26.41845532      20.35962500      33.48854311
I       22.57147012      20.35962500      35.55041760
I       24.38242988      22.75487500      44.43091760
I       29.59952988      22.75487500      53.25458240
I       27.78857012      20.35962500      44.37408240
I       23.98926922      20.35962500      40.62455769
I       22.96463078      22.75487500      49.50505769
I       28.18173078      22.75487500      48.18044231
I       29.20636922      20.35962500      39.29994231
I       21.20135532      20.35962500      46.43595689
I       25.75254468      22.75487500      37.55545689
I       30.96964468      22.75487500      42.36904311
I       26.41845532      20.35962500      51.24954311
I       22.57147012      20.35962500      53.31141760
I       24.38242988      22.75487500      62.19191760
I       29.59952988      22.75487500      71.01558240
I       27.78857012      20.35962500      62.13508240
I       23.98926922      20.35962500      58.38555769
I       22.96463078      22.75487500      67.26605769
I       28.18173078      22.75487500      65.94144231
I       29.20636922      20.35962500      57.06094231
I       21.20135532      20.35962500      64.19695689
I       25.75254468      22.75487500      55.31645689
I       30.96964468      22.75487500      60.13004311
I       26.41845532      20.35962500      69.01054311
I       22.57147012      25.15012500       0.02841760
I       24.38242988      27.54537500       8.90891760
I       29.59952988      27.54537500      17.73258240
I       27.78857012      25.15012500       8.85208240
I       23.98926922      25.15012500       5.10255769
I       22.96463078      27.54537500      13.98305769
I       28.18173078      27.54537500      12.65844231
I       29.20636922      25.15012500       3.77794231
I       21.20135532      25.15012500      10.91395689
I       25.75254468      27.54537500       2.03345689
I       30.96964468      27.54537500       6.84704311
I       26.41845532      25.15012500      15.72754311
I       22.57147012      25.15012500      17.78941760
I       24.38242988      27.54537500      26.66991760
I       29.59952988      27.54537500      35.49358240
I       27.78857012      25.15012500      26.61308240
I       23.98926922      25.15012500      22.86355769
I       22.96463078      27.54537500      31.74405769
I       28.18173078      27.54537500      30.41944231
I       29.20636922      25.15012500      21.53894231
I       21.20135532      25.15012500      28.67495689
I       25.75254468      27.54537500      19.79445689
I       30.96964468      27.54537500      24.60804311
I       26.41845532      25.15012500      33.48854311
I       22.57147012      25.15012500      35.55041760
I       24.38242988      27.54537500      44.43091760
I       29.59952988      27.54537500      53.25458240
I       27.78857012      25.15012500      44.37408240
I       23.98926922      25.15012500      40.62455769
I       22.96463078      27.54537500      49.50505769
I       28.18173078      27.54537500      48.18044231
I       29.20636922      25.15012500      39.29994231
I       21.20135532      25.15012500      46.43595689
I       25.75254468      27.54537500      37.55545689
I       30.96964468      27.54537500      42.36904311
I       26.41845532      25.15012500      51.24954311
I       22.57147012      25.15012500      53.31141760
I       24.38242988      27.54537500      62.19191760
I       29.59952988      27.54537500      71.01558240
I       27.78857012      25.15012500      62.13508240
I       23.98926922      25.15012500      58.38555769
I       22.96463078      27.54537500      67.26605769
I       28.18173078      27.54537500      65.94144231
I       29.20636922      25.15012500      57.06094231
I       21.20135532      25.15012500      64.19695689
I       25.75254468      27.54537500      55.31645689
I       30.96964468      27.54537500      60.13004311
I       26.41845532      25.15012500      69.01054311
I       22.57147012      29.94062500       0.02841760
I       24.38242988      32.33587500       8.90891760
I       29.59952988      32.33587500      17.73258240
I       27.78857012      29.94062500       8.85208240
I       23.98926922      29.94062500       5.10255769
I       22.96463078      32.33587500      13.98305769
I       28.18173078      32.33587500      12.65844231
I       29.20636922      29.94062500       3.77794231
I       21.20135532      29.94062500      10.91395689
I       25.75254468      32.33587500       2.03345689
I       30.96964468      32.33587500       6.84704311
I       26.41845532      29.94062500      15.72754311
I       22.57147012      29.94062500      17.78941760
I       24.38242988      32.33587500      26.66991760
I       29.59952988      32.33587500      35.49358240
I       27.78857012      29.94062500      26.61308240
I       23.98926922      29.94062500      22.86355769
I       22.96463078      32.33587500      31.74405769
I       28.18173078      32.33587500      30.41944231
I       29.20636922      29.94062500      21.53894231
I       21.20135532      29.94062500      28.67495689
I       25.75254468      32.33587500      19.79445689
I       30.96964468      32.33587500      24.60804311
I       26.41845532      29.94062500      33.48854311
I       22.57147012      29.94062500      35.55041760
I       24.38242988      32.33587500      44.43091760
I       29.59952988      32.33587500      53.25458240
I       27.78857012      29.94062500      44.37408240
I       23.98926922      29.94062500      40.62455769
I       22.96463078      32.33587500      49.50505769
I       28.18173078      32.33587500      48.18044231
I       29.20636922      29.94062500      39.29994231
I       21.20135532      29.94062500      46.43595689
I       25.75254468      32.33587500      37.55545689
I       30.96964468      32.33587500      42.36904311
I       26.41845532      29.94062500      51.24954311
I       22.57147012      29.94062500      53.31141760
I       24.38242988      32.33587500      62.19191760
I       29.59952988      32.33587500      71.01558240
I       27.78857012      29.94062500      62.13508240
I       23.98926922      29.94062500      58.38555769
I       22.96463078      32.33587500      67.26605769
I       28.18173078      32.33587500      65.94144231
I       29.20636922      29.94062500      57.06094231
I       21.20135532      29.94062500      64.19695689
I       25.75254468      32.33587500      55.31645689
I       30.96964468      32.33587500      60.13004311
I       26.41845532      29.94062500      69.01054311
I       22.57147012      34.73112500       0.02841760
I       24.38242988      37.12637500       8.90891760
I       29.59952988      37.12637500      17.73258240
I       27.78857012      34.73112500       8.85208240
I       23.98926922      34.73112500       5.10255769
I       22.96463078      37.12637500      13.98305769
I       28.18173078      37.12637500      12.65844231
I       29.20636922      34.73112500       3.77794231
I       21.20135532      34.73112500      10.91395689
I       25.75254468      37.12637500       2.03345689
I       30.96964468      37.12637500       6.84704311
I       26.41845532      34.73112500      15.72754311
I       22.57147012      34.73112500      17.78941760
I       24.38242988      37.12637500      26.66991760
I       29.59952988      37.12637500      35.49358240
I       27.78857012      34.73112500      26.61308240
I       23.98926922      34.73112500      22.86355769
I       22.96463078      37.12637500      31.74405769
I       28.18173078      37.12637500      30.41944231
I       29.20636922      34.73112500      21.53894231
I       21.20135532      34.73112500      28.67495689
I       25.75254468      37.12637500      19.79445689
I       30.96964468      37.12637500      24.60804311
I       26.41845532      34.73112500      33.48854311
I       22.57147012      34.73112500      35.55041760
I       24.38242988      37.12637500      44.43091760
I       29.59952988      37.12637500      53.25458240
I       27.78857012      34.73112500      44.37408240
I       23.98926922      34.73112500      40.62455769
I       22.96463078      37.12637500      49.50505769
I       28.18173078      37.12637500      48.18044231
I       29.20636922      34.73112500      39.29994231
I       21.20135532      34.73112500      46.43595689
I       25.75254468      37.12637500      37.55545689
I       30.96964468      37.12637500      42.36904311
I       26.41845532      34.73112500      51.24954311
I       22.57147012      34.73112500      53.31141760
I       24.38242988      37.12637500      62.19191760
I       29.59952988      37.12637500      71.01558240
I       27.78857012      34.73112500      62.13508240
I       23.98926922      34.73112500      58.38555769
I       22.96463078      37.12637500      67.26605769
I       28.18173078      37.12637500      65.94144231
I       29.20636922      34.73112500      57.06094231
I       21.20135532      34.73112500      64.19695689
I       25.75254468      37.12637500      55.31645689
I       30.96964468      37.12637500      60.13004311
I       26.41845532      34.73112500      69.01054311
I       22.57147012      39.52162500       0.02841760
I       24.38242988      41.91687500       8.90891760
I       29.59952988      41.91687500      17.73258240
I       27.78857012      39.52162500       8.85208240
I       23.98926922      39.52162500       5.10255769
I       22.96463078      41.91687500      13.98305769
I       28.18173078      41.91687500      12.65844231
I       29.20636922      39.52162500       3.77794231
I       21.20135532      39.52162500      10.91395689
I       25.75254468      41.91687500       2.03345689
I       30.96964468      41.91687500       6.84704311
I       26.41845532      39.52162500      15.72754311
I       22.57147012      39.52162500      17.78941760
I       24.38242988      41.91687500      26.66991760
I       29.59952988      41.91687500      35.49358240
I       27.78857012      39.52162500      26.61308240
I       23.98926922      39.52162500      22.86355769
I       22.96463078      41.91687500      31.74405769
I       28.18173078      41.91687500      30.41944231
I       29.20636922      39.52162500      21.53894231
I       21.20135532      39.52162500      28.67495689
I       25.75254468      41.91687500      19.79445689
I       30.96964468      41.91687500      24.60804311
I       26.41845532      39.52162500      33.48854311
I       22.57147012      39.52162500      35.55041760
I       24.38242988      41.91687500      44.43091760
I       29.59952988      41.91687500      53.25458240
I       27.78857012      39.52162500      44.37408240
I       23.98926922      39.52162500      40.62455769
I       22.96463078      41.91687500      49.50505769
I       28.18173078      41.91687500      48.18044231
I       29.20636922      39.52162500      39.29994231
I       21.20135532      39.52162500      46.43595689
I       25.75254468      41.91687500      37.55545689
I       30.96964468      41.91687500      42.36904311
I       26.41845532      39.52162500      51.24954311
I       22.57147012      39.52162500      53.31141760
I       24.38242988      41.91687500      62.19191760
I       29.59952988      41.91687500      71.01558240
I       27.78857012      39.52162500      62.13508240
I       23.98926922      39.52162500      58.38555769
I       22.96463078      41.91687500      67.26605769
I       28.18173078      41.91687500      65.94144231
I       29.20636922      39.52162500      57.06094231
I       21.20135532      39.52162500      64.19695689
I       25.75254468      41.91687500      55.31645689
I       30.96964468      41.91687500      60.13004311
I       26.41845532      39.52162500      69.01054311
I       22.57147012      44.31212500       0.02841760
I       24.38242988      46.70737500       8.90891760
I       29.59952988      46.70737500      17.73258240
I       27.78857012      44.31212500       8.85208240
I       23.98926922      44.31212500       5.10255769
I       22.96463078      46.70737500      13.98305769
I       28.18173078      46.70737500      12.65844231
I       29.20636922      44.31212500       3.77794231
I       21.20135532      44.31212500      10.91395689
I       25.75254468      46.70737500       2.03345689
I       30.96964468      46.70737500       6.84704311
I       26.41845532      44.31212500      15.72754311
I       22.57147012      44.31212500      17.78941760
I       24.38242988      46.70737500      26.66991760
I       29.59952988      46.70737500      35.49358240
I       27.78857012      44.31212500      26.61308240
I       23.98926922      44.31212500      22.86355769
I       22.96463078      46.70737500      31.74405769
I       28.18173078      46.70737500      30.41944231
I       29.20636922      44.31212500      21.53894231
I       21.20135532      44.31212500      28.67495689
I       25.75254468      46.70737500      19.79445689
I       30.96964468      46.70737500      24.60804311
I       26.41845532      44.31212500      33.48854311
I       22.57147012      44.31212500      35.55041760
I       24.38242988      46.70737500      44.43091760
I       29.59952988      46.70737500      53.25458240
I       27.78857012      44.31212500      44.37408240
I       23.98926922      44.31212500      40.62455769
I       22.96463078      46.70737500      49.50505769
I       28.18173078      46.70737500      48.18044231
I       29.20636922      44.31212500      39.29994231
I       21.20135532      44.31212500      46.43595689
I       25.75254468      46.70737500      37.55545689
I       30.96964468      46.70737500      42.36904311
I       26.41845532      44.31212500      51.24954311
I       22.57147012      44.31212500      53.31141760
I       24.38242988      46.70737500      62.19191760
I       29.59952988      46.70737500      71.01558240
I       27.78857012      44.31212500      62.13508240
I       23.98926922      44.31212500      58.38555769
I       22.96463078      46.70737500      67.26605769
I       28.18173078      46.70737500      65.94144231
I       29.20636922      44.31212500      57.06094231
I       21.20135532      44.31212500      64.19695689
I       25.75254468      46.70737500      55.31645689
I       30.96964468      46.70737500      60.13004311
I       26.41845532      44.31212500      69.01054311
I       22.57147012      49.10262500       0.02841760
I       24.38242988      51.49787500       8.90891760
I       29.59952988      51.49787500      17.73258240
I       27.78857012      49.10262500       8.85208240
I       23.98926922      49.10262500       5.10255769
I       22.96463078      51.49787500      13.98305769
I       28.18173078      51.49787500      12.65844231
I       29.20636922      49.10262500       3.77794231
I       21.20135532      49.10262500      10.91395689
I       25.75254468      51.49787500       2.03345689
I       30.96964468      51.49787500       6.84704311
I       26.41845532      49.10262500      15.72754311
I       22.57147012      49.10262500      17.78941760
I       24.38242988      51.49787500      26.66991760
I       29.59952988      51.49787500      35.49358240
I       27.78857012      49.10262500      26.61308240
I       23.98926922      49.10262500      22.86355769
I       22.96463078      51.49787500      31.74405769
I       28.18173078      51.49787500      30.41944231
I       29.20636922      49.10262500      21.53894231
I       21.20135532      49.10262500      28.67495689
I       25.75254468      51.49787500      19.79445689
I       30.96964468      51.49787500      24.60804311
I       26.41845532      49.10262500      33.48854311
I       22.57147012      49.10262500      35.55041760
I       24.38242988      51.49787500      44.43091760
I       29.59952988      51.49787500      53.25458240
I       27.78857012      49.10262500      44.37408240
I       23.98926922      49.10262500      40.62455769
I       22.96463078      51.49787500      49.50505769
I       28.18173078      51.49787500      48.18044231
I       29.20636922      49.10262500      39.29994231
I       21.20135532      49.10262500      46.43595689
I       25.75254468      51.49787500      37.55545689
I       30.96964468      51.49787500      42.36904311
I       26.41845532      49.10262500      51.24954311
I       22.57147012      49.10262500      53.31141760
I       24.38242988      51.49787500      62.19191760
I       29.59952988      51.49787500      71.01558240
I       27.78857012      49.10262500      62.13508240
I       23.98926922      49.10262500      58.38555769
I       22.96463078      51.49787500      67.26605769
I       28.18173078      51.49787500      65.94144231
I       29.20636922      49.10262500      57.06094231
I       21.20135532      49.10262500      64.19695689
I       25.75254468      51.49787500      55.31645689
I       30.96964468      51.49787500      60.13004311
I       26.41845532      49.10262500      69.01054311
I       22.57147012      53.89312500       0.02841760
I       24.38242988      56.28837500       8.90891760
I       29.59952988      56.28837500      17.73258240
I       27.78857012      53.89312500       8.85208240
I       23.98926922      53.89312500       5.10255769
I       22.96463078      56.28837500      13.98305769
I       28.18173078      56.28837500      12.65844231
I       29.20636922      53.89312500       3.77794231
I       21.20135532      53.89312500      10.91395689
I       25.75254468      56.28837500       2.03345689
I       30.96964468      56.28837500       6.84704311
I       26.41845532      53.89312500      15.72754311
I       22.57147012      53.89312500      17.78941760
I       24.38242988      56.28837500      26.66991760
I       29.59952988      56.28837500      35.49358240
I       27.78857012      53.89312500      26.61308240
I       23.98926922      53.89312500      22.86355769
I       22.96463078      56.28837500      31.74405769
I       28.18173078      56.28837500      30.41944231
I       29.20636922      53.89312500      21.53894231
I       21.20135532      53.89312500      28.67495689
I       25.75254468      56.28837500      19.79445689
I       30.96964468      56.28837500      24.60804311
I       26.41845532      53.89312500      33.48854311
I       22.57147012      53.89312500      35.55041760
I       24.38242988      56.28837500      44.43091760
I       29.59952988      56.28837500      53.25458240
I       27.78857012      53.89312500      44.37408240
I       23.98926922      53.89312500      40.62455769
I       22.96463078      56.28837500      49.50505769
I       28.18173078      56.28837500      48.18044231
I       29.20636922      53.89312500      39.29994231
I       21.20135532      53.89312500      46.43595689
I       25.75254468      56.28837500      37.55545689
I       30.96964468      56.28837500      42.36904311
I       26.41845532      53.89312500      51.24954311
I       22.57147012      53.89312500      53.31141760
I       24.38242988      56.28837500      62.19191760
I       29.59952988      56.28837500      71.01558240
I       27.78857012      53.89312500      62.13508240
I       23.98926922      53.89312500      58.38555769
I       22.96463078      56.28837500      67.26605769
I       28.18173078      56.28837500      65.94144231
I       29.20636922      53.89312500      57.06094231
I       21.20135532      53.89312500      64.19695689
I       25.75254468      56.28837500      55.31645689
I       30.96964468      56.28837500      60.13004311
I       26.41845532      53.89312500      69.01054311
I       22.57147012      58.68362500       0.02841760
I       24.38242988      61.07887500       8.90891760
I       29.59952988      61.07887500      17.73258240
I       27.78857012      58.68362500       8.85208240
I       23.98926922      58.68362500       5.10255769
I       22.96463078      61.07887500      13.98305769
I       28.18173078      61.07887500      12.65844231
I       29.20636922      58.68362500       3.77794231
I       21.20135532      58.68362500      10.91395689
I       25.75254468      61.07887500       2.03345689
I       30.96964468      61.07887500       6.84704311
I       26.41845532      58.68362500      15.72754311
I       22.57147012      58.68362500      17.78941760
I       24.38242988      61.07887500      26.66991760
I       29.59952988      61.07887500      35.49358240
I       27.78857012      58.68362500      26.61308240
I       23.98926922      58.68362500      22.86355769
I       22.96463078      61.07887500      31.74405769
I       28.18173078      61.07887500      30.41944231
I       29.20636922      58.68362500      21.53894231
I       21.20135532      58.68362500      28.67495689
I       25.75254468      61.07887500      19.79445689
I       30.96964468      61.07887500      24.60804311
I       26.41845532      58.68362500      33.48854311
I       22.57147012      58.68362500      35.55041760
I       24.38242988      61.07887500      44.43091760
I       29.59952988      61.07887500      53.25458240
I       27.78857012      58.68362500      44.37408240
I       23.98926922      58.68362500      40.62455769
I       22.96463078      61.07887500      49.50505769
I       28.18173078      61.07887500      48.18044231
I       29.20636922      58.68362500      39.29994231
I       21.20135532      58.68362500      46.43595689
I       25.75254468      61.07887500      37.55545689
I       30.96964468      61.07887500      42.36904311
I       26.41845532      58.68362500      51.24954311
I       22.57147012      58.68362500      53.31141760
I       24.38242988      61.07887500      62.19191760
I       29.59952988      61.07887500      71.01558240
I       27.78857012      58.68362500      62.13508240
I       23.98926922      58.68362500      58.38555769
I       22.96463078      61.07887500      67.26605769
I       28.18173078      61.07887500      65.94144231
I       29.20636922      58.68362500      57.06094231
I       21.20135532      58.68362500      64.19695689
I       25.75254468      61.07887500      55.31645689
I       30.96964468      61.07887500      60.13004311
I       26.41845532      58.68362500      69.01054311
I       22.57147012      63.47412500       0.02841760
I       24.38242988      65.86937500       8.90891760
I       29.59952988      65.86937500      17.73258240
I       27.78857012      63.47412500       8.85208240
I       23.98926922      63.47412500       5.10255769
I       22.96463078      65.86937500      13.98305769
I       28.18173078      65.86937500      12.65844231
I       29.20636922      63.47412500       3.77794231
I       21.20135532      63.47412500      10.91395689
I       25.75254468      65.86937500       2.03345689
I       30.96964468      65.86937500       6.84704311
I       26.41845532      63.47412500      15.72754311
I       22.57147012      63.47412500      17.78941760
I       24.38242988      65.86937500      26.66991760
I       29.59952988      65.86937500      35.49358240
I       27.78857012      63.47412500      26.61308240
I       23.98926922      63.47412500      22.86355769
I       22.96463078      65.86937500      31.74405769
I       28.18173078      65.86937500      30.41944231
I       29.20636922      63.47412500      21.53894231
I       21.20135532      63.47412500      28.67495689
I       25.75254468      65.86937500      19.79445689
I       30.96964468      65.86937500      24.60804311
I       26.41845532      63.47412500      33.48854311
I       22.57147012      63.47412500      35.55041760
I       24.38242988      65.86937500      44.43091760
I       29.59952988      65.86937500      53.25458240
I       27.78857012      63.47412500      44.37408240
I       23.98926922      63.47412500      40.62455769
I       22.96463078      65.86937500      49.50505769
I       28.18173078      65.86937500      48.18044231
I       29.20636922      63.47412500      39.29994231
I       21.20135532      63.47412500      46.43595689
I       25.75254468      65.86937500      37.55545689
I       30.96964468      65.86937500      42.36904311
I       26.41845532      63.47412500      51.24954311
I       22.57147012      63.47412500      53.31141760
I       24.38242988      65.86937500      62.19191760
I       29.59952988      65.86937500      71.01558240
I       27.78857012      63.47412500      62.13508240
I       23.98926922      63.47412500      58.38555769
I       22.96463078      65.86937500      67.26605769
I       28.18173078      65.86937500      65.94144231
I       29.20636922      63.47412500      57.06094231
I       21.20135532      63.47412500      64.19695689
I       25.75254468      65.86937500      55.31645689
I       30.96964468      65.86937500      60.13004311
I       26.41845532      63.47412500      69.01054311
I       22.57147012      68.26462500       0.02841760
I       24.38242988      70.65987500       8.90891760
I       29.59952988      70.65987500      17.73258240
I       27.78857012      68.26462500       8.85208240
I       23.98926922      68.26462500       5.10255769
I       22.96463078      70.65987500      13.98305769
I       28.18173078      70.65987500      12.65844231
I       29.20636922      68.26462500       3.77794231
I       21.20135532      68.26462500      10.91395689
I       25.75254468      70.65987500       2.03345689
I       30.96964468      70.65987500       6.84704311
I       26.41845532      68.26462500      15.72754311
I       22.57147012      68.26462500      17.78941760
I       24.38242988      70.65987500      26.66991760
I       29.59952988      70.65987500      35.49358240
I       27.78857012      68.26462500      26.61308240
I       23.98926922      68.26462500      22.86355769
I       22.96463078      70.65987500      31.74405769
I       28.18173078      70.65987500      30.41944231
I       29.20636922      68.26462500      21.53894231
I       21.20135532      68.26462500      28.67495689
I       25.75254468      70.65987500      19.79445689
I       30.96964468      70.65987500      24.60804311
I       26.41845532      68.26462500      33.48854311
I       22.57147012      68.26462500      35.55041760
I       24.38242988      70.65987500      44.43091760
I       29.59952988      70.65987500      53.25458240
I       27.78857012      68.26462500      44.37408240
I       23.98926922      68.26462500      40.62455769
I       22.96463078      70.65987500      49.50505769
I       28.18173078      70.65987500      48.18044231
I       29.20636922      68.26462500      39.29994231
I       21.20135532      68.26462500      46.43595689
I       25.75254468      70.65987500      37.55545689
I       30.96964468      70.65987500      42.36904311
I       26.41845532      68.26462500      51.24954311
I       22.57147012      68.26462500      53.31141760
I       24.38242988      70.65987500      62.19191760
I       29.59952988      70.65987500      71.01558240
I       27.78857012      68.26462500      62.13508240
I       23.98926922      68.26462500      58.38555769
I       22.96463078      70.65987500      67.26605769
I       28.18173078      70.65987500      65.94144231
I       29.20636922      68.26462500      57.06094231
I       21.20135532      68.26462500      64.19695689
I       25.75254468      70.65987500      55.31645689
I       30.96964468      70.65987500      60.13004311
I       26.41845532      68.26462500      69.01054311
I       22.57147012      73.05512500       0.02841760
I       24.38242988      75.45037500       8.90891760
I       29.59952988      75.45037500      17.73258240
I       27.78857012      73.05512500       8.85208240
I       23.98926922      73.05512500       5.10255769
I       22.96463078      75.45037500      13.98305769
I       28.18173078      75.45037500      12.65844231
I       29.20636922      73.05512500       3.77794231
I       21.20135532      73.05512500      10.91395689
I       25.75254468      75.45037500       2.03345689
I       30.96964468      75.45037500       6.84704311
I       26.41845532      73.05512500      15.72754311
I       22.57147012      73.05512500      17.78941760
I       24.38242988      75.45037500      26.66991760
I       29.59952988      75.45037500      35.49358240
I       27.78857012      73.05512500      26.61308240
I       23.98926922      73.05512500      22.86355769
I       22.96463078      75.45037500      31.74405769
I       28.18173078      75.45037500      30.41944231
I       29.20636922      73.05512500      21.53894231
I       21.20135532      73.05512500      28.67495689
I       25.75254468      75.45037500      19.79445689
I       30.96964468      75.45037500      24.60804311
I       26.41845532      73.05512500      33.48854311
I       22.57147012      73.05512500      35.55041760
I       24.38242988      75.45037500      44.43091760
I       29.59952988      75.45037500      53.25458240
I       27.78857012      73.05512500      44.37408240
I       23.98926922      73.05512500      40.62455769
I       22.96463078      75.45037500      49.50505769
I       28.18173078      75.45037500      48.18044231
I       29.20636922      73.05512500      39.29994231
I       21.20135532      73.05512500      46.43595689
I       25.75254468      75.45037500      37.55545689
I       30.96964468      75.45037500      42.36904311
I       26.41845532      73.05512500      51.24954311
I       22.57147012      73.05512500      53.31141760
I       24.38242988      75.45037500      62.19191760
I       29.59952988      75.45037500      71.01558240
I       27.78857012      73.05512500      62.13508240
I       23.98926922      73.05512500      58.38555769
I       22.96463078      75.45037500      67.26605769
I       28.18173078      75.45037500      65.94144231
I       29.20636922      73.05512500      57.06094231
I       21.20135532      73.05512500      64.19695689
I       25.75254468      75.45037500      55.31645689
I       30.96964468      75.45037500      60.13004311
I       26.41845532      73.05512500      69.01054311
I       22.57147012      77.84562500       0.02841760
I       24.38242988      80.24087500       8.90891760
I       29.59952988      80.24087500      17.73258240
I       27.78857012      77.84562500       8.85208240
I       23.98926922      77.84562500       5.10255769
I       22.96463078      80.24087500      13.98305769
I       28.18173078      80.24087500      12.65844231
I       29.20636922      77.84562500       3.77794231
I       21.20135532      77.84562500      10.91395689
I       25.75254468      80.24087500       2.03345689
I       30.96964468      80.24087500       6.84704311
I       26.41845532      77.84562500      15.72754311
I       22.57147012      77.84562500      17.78941760
I       24.38242988      80.24087500      26.66991760
I       29.59952988      80.24087500      35.49358240
I       27.78857012      77.84562500      26.61308240
I       23.98926922      77.84562500      22.86355769
I       22.96463078      80.24087500      31.74405769
I       28.18173078      80.24087500      30.41944231
I       29.20636922      77.84562500      21.53894231
I       21.20135532      77.84562500      28.67495689
I       25.75254468      80.24087500      19.79445689
I       30.96964468      80.24087500      24.60804311
I       26.41845532      77.84562500      33.48854311
I       22.57147012      77.84562500      35.55041760
I       24.38242988      80.24087500      44.43091760
I       29.59952988      80.24087500      53.25458240
I       27.78857012      77.84562500      44.37408240
I       23.98926922      77.84562500      40.62455769
I       22.96463078      80.24087500      49.50505769
I       28.18173078      80.24087500      48.18044231
I       29.20636922      77.84562500      39.29994231
I       21.20135532      77.84562500      46.43595689
I       25.75254468      80.24087500      37.55545689
I       30.96964468      80.24087500      42.36904311
I       26.41845532      77.84562500      51.24954311
I       22.57147012      77.84562500      53.31141760
I       24.38242988      80.24087500      62.19191760
I       29.59952988      80.24087500      71.01558240
I       27.78857012      77.84562500      62.13508240
I       23.98926922      77.84562500      58.38555769
I       22.96463078      80.24087500      67.26605769
I       28.18173078      80.24087500      65.94144231
I       29.20636922      77.84562500      57.06094231
I       21.20135532      77.84562500      64.19695689
I       25.75254468      80.24087500      55.31645689
I       30.96964468      80.24087500      60.13004311
I       26.41845532      77.84562500      69.01054311
I       22.57147012      82.63612500       0.02841760
I       24.38242988      85.03137500       8.90891760
I       29.59952988      85.03137500      17.73258240
I       27.78857012      82.63612500       8.85208240
I       23.98926922      82.63612500       5.10255769
I       22.96463078      85.03137500      13.98305769
I       28.18173078      85.03137500      12.65844231
I       29.20636922      82.63612500       3.77794231
I       21.20135532      82.63612500      10.91395689
I       25.75254468      85.03137500       2.03345689
I       30.96964468      85.03137500       6.84704311
I       26.41845532      82.63612500      15.72754311
I       22.57147012      82.63612500      17.78941760
I       24.38242988      85.03137500      26.66991760
I       29.59952988      85.03137500      35.49358240
I       27.78857012      82.63612500      26.61308240
I       23.98926922      82.63612500      22.86355769
I       22.96463078      85.03137500      31.74405769
I       28.18173078      85.03137500      30.41944231
I       29.20636922      82.63612500      21.53894231
I       21.20135532      82.63612500      28.67495689
I       25.75254468      85.03137500      19.79445689
I       30.96964468      85.03137500      24.60804311
I       26.41845532      82.63612500      33.48854311
I       22.57147012      82.63612500      35.55041760
I       24.38242988      85.03137500      44.43091760
I       29.59952988      85.03137500      53.25458240
I       27.78857012      82.63612500      44.37408240
I       23.98926922      82.63612500      40.62455769
I       22.96463078      85.03137500      49.50505769
I       28.18173078      85.03137500      48.18044231
I       29.20636922      82.63612500      39.29994231
I       21.20135532      82.63612500      46.43595689
I       25.75254468      85.03137500      37.55545689
I       30.96964468      85.03137500      42.36904311
I       26.41845532      82.63612500      51.24954311
I       22.57147012      82.63612500      53.31141760
I       24.38242988      85.03137500      62.19191760
I       29.59952988      85.03137500      71.01558240
I       27.78857012      82.63612500      62.13508240
I       23.98926922      82.63612500      58.38555769
I       22.96463078      85.03137500      67.26605769
I       28.18173078      85.03137500      65.94144231
I       29.20636922      82.63612500      57.06094231
I       21.20135532      82.63612500      64.19695689
I       25.75254468      85.03137500      55.31645689
I       30.96964468      85.03137500      60.13004311
I       26.41845532      82.63612500      69.01054311
I       33.00567012       1.19762500       0.02841760
I       34.81662988       3.59287500       8.90891760
I       40.03372988       3.59287500      17.73258240
I       38.22277012       1.19762500       8.85208240
I       34.42346922       1.19762500       5.10255769
I       33.39883078       3.59287500      13.98305769
I       38.61593078       3.59287500      12.65844231
I       39.64056922       1.19762500       3.77794231
I       31.63555532       1.19762500      10.91395689
I       36.18674468       3.59287500       2.03345689
I       41.40384468       3.59287500       6.84704311
I       36.85265532       1.19762500      15.72754311
I       33.00567012       1.19762500      17.78941760
I       34.81662988       3.59287500      26.66991760
I       40.03372988       3.59287500      35.49358240
I       38.22277012       1.19762500      26.61308240
I       34.42346922       1.19762500      22.86355769
I       33.39883078       3.59287500      31.74405769
I       38.61593078       3.59287500      30.41944231
I       39.64056922       1.19762500      21.53894231
I       31.63555532       1.19762500      28.67495689
I       36.18674468       3.59287500      19.79445689
I       41.40384468       3.59287500      24.60804311
I       36.85265532       1.19762500      33.48854311
I       33.00567012       1.19762500      35.55041760
I       34.81662988       3.59287500      44.43091760
I       40.03372988       3.59287500      53.25458240
I       38.22277012       1.19762500      44.37408240
I       34.42346922       1.19762500      40.62455769
I       33.39883078       3.59287500      49.50505769
I       38.61593078       3.59287500      48.18044231
I       39.64056922       1.19762500      39.29994231
I       31.63555532       1.19762500      46.43595689
I       36.18674468       3.59287500      37.55545689
I       41.40384468       3.59287500      42.36904311
I       36.85265532       1.19762500      51.24954311
I       33.00567012       1.19762500      53.31141760
I       34.81662988       3.59287500      62.19191760
I       40.03372988       3.59287500      71.01558240
I       38.22277012       1.19762500      62.13508240
I       34.42346922       1.19762500      58.38555769
I       33.39883078       3.59287500      67.26605769
I       38.61593078       3.59287500      65.94144231
I       39.64056922       1.19762500      57.06094231
I       31.63555532       1.19762500      64.19695689
I       36.18674468       3.59287500      55.31645689
I       41.40384468       3.59287500      60.13004311
I       36.85265532       1.19762500      69.01054311
I       33.00567012       5.98812500       0.02841760
I       34.81662988       8.38337500       8.90891760
I       40.03372988       8.38337500      17.73258240
I       38.22277012       5.98812500       8.85208240
I       34.42346922       5.98812500       5.10255769
I       33.39883078       8.38337500      13.98305769
I       38.61593078       8.38337500      12.65844231
I       39.64056922       5.98812500       3.77794231
I       31.63555532       5.98812500      10.91395689
I       36.18674468       8.38337500       2.03345689
I       41.40384468       8.38337500       6.84704311
I       36.85265532       5.98812500      15.72754311
I       33.00567012       5.98812500      17.78941760
I       34.81662988       8.38337500      26.66991760
I       40.03372988       8.38337500      35.49358240
I       38.22277012       5.98812500      26.61308240
I       34.42346922       5.98812500      22.86355769
I       33.39883078       8.38337500      31.74405769
I       38.61593078       8.38337500      30.41944231
I       39.64056922       5.98812500      21.53894231
I       31.63555532       5.98812500      28.67495689
I       36.18674468       8.38337500      19.79445689
I       41.40384468       8.38337500      24.60804311
I       36.85265532       5.98812500      33.48854311
I       33.00567012       5.98812500      35.55041760
I       34.81662988       8.38337500      44.43091760
I       40.03372988       8.38337500      53.25458240
I       38.22277012       5.98812500      44.37408240
I       34.42346922       5.98812500      40.62455769
I       33.39883078       8.38337500      49.50505769
I       38.61593078       8.38337500      48.18044231
I       39.64056922       5.98812500      39.29994231
I       31.63555532       5.98812500      46.43595689
I       36.18674468       8.38337500      37.55545689
I       41.40384468       8.38337500      42.36904311
I       36.85265532       5.98812500      51.24954311
I       33.00567012       5.98812500      53.31141760
I       34.81662988       8.38337500      62.19191760
I       40.03372988       8.38337500      71.01558240
I       38.22277012       5.98812500      62.13508240
I       34.42346922       5.98812500      58.38555769
I       33.39883078       8.38337500      67.26605769
I       38.61593078       8.38337500      65.94144231
I       39.64056922       5.98812500      57.06094231
I       31.63555532       5.98812500      64.19695689
I       36.18674468       8.38337500      55.31645689
I       41.40384468       8.38337500      60.13004311
I       36.85265532       5.98812500      69.01054311
I       33.00567012      10.77862500       0.02841760
I       34.81662988      13.17387500       8.90891760
I       40.03372988      13.17387500      17.73258240
I       38.22277012      10.77862500       8.85208240
I       34.42346922      10.77862500       5.10255769
I       33.39883078      13.17387500      13.98305769
I       38.61593078      13.17387500      12.65844231
I       39.64056922      10.77862500       3.77794231
I       31.63555532      10.77862500      10.91395689
I       36.18674468      13.17387500       2.03345689
I       41.40384468      13.17387500       6.84704311
I       36.85265532      10.77862500      15.72754311
I       33.00567012      10.77862500      17.78941760
I       34.81662988      13.17387500      26.66991760
I       40.03372988      13.17387500      35.49358240
I       38.22277012      10.77862500      26.61308240
I       34.42346922      10.77862500      22.86355769
I       33.39883078      13.17387500      31.74405769
I       38.61593078      13.17387500      30.41944231
I       39.64056922      10.77862500      21.53894231
I       31.63555532      10.77862500      28.67495689
I       36.18674468      13.17387500      19.79445689
I       41.40384468      13.17387500      24.60804311
I       36.85265532      10.77862500      33.48854311
I       33.00567012      10.77862500      35.55041760
I       34.81662988      13.17387500      44.43091760
I       40.03372988      13.17387500      53.25458240
I       38.22277012      10.77862500      44.37408240
I       34.42346922      10.77862500      40.62455769
I       33.39883078      13.17387500      49.50505769
I       38.61593078      13.17387500      48.18044231
I       39.64056922      10.77862500      39.29994231
I       31.63555532      10.77862500      46.43595689
I       36.18674468      13.17387500      37.55545689
I       41.40384468      13.17387500      42.36904311
I       36.85265532      10.77862500      51.24954311
I       33.00567012      10.77862500      53.31141760
I       34.81662988      13.17387500      62.19191760
I       40.03372988      13.17387500      71.01558240
I       38.22277012      10.77862500      62.13508240
I       34.42346922      10.77862500      58.38555769
I       33.39883078      13.17387500      67.26605769
I       38.61593078      13.17387500      65.94144231
I       39.64056922      10.77862500      57.06094231
I       31.63555532      10.77862500      64.19695689
I       36.18674468      13.17387500      55.31645689
I       41.40384468      13.17387500      60.13004311
I       36.85265532      10.77862500      69.01054311
I       33.00567012      15.56912500       0.02841760
I       34.81662988      17.96437500       8.90891760
I       40.03372988      17.96437500      17.73258240
I       38.22277012      15.56912500       8.85208240
I       34.42346922      15.56912500       5.10255769
I       33.39883078      17.96437500      13.98305769
I       38.61593078      17.96437500      12.65844231
I       39.64056922      15.56912500       3.77794231
I       31.63555532      15.56912500      10.91395689
I       36.18674468      17.96437500       2.03345689
I       41.40384468      17.96437500       6.84704311
I       36.85265532      15.56912500      15.72754311
I       33.00567012      15.56912500      17.78941760
I       34.81662988      17.96437500      26.66991760
I       40.03372988      17.96437500      35.49358240
I       38.22277012      15.56912500      26.61308240
I       34.42346922      15.56912500      22.86355769
I       33.39883078      17.96437500      31.74405769
I       38.61593078      17.96437500      30.41944231
I       39.64056922      15.56912500      21.53894231
I       31.63555532      15.56912500      28.67495689
I       36.18674468      17.96437500      19.79445689
I       41.40384468      17.96437500      24.60804311
I       36.85265532      15.56912500      33.48854311
I       33.00567012      15.56912500      35.55041760
I       34.81662988      17.96437500      44.43091760
I       40.03372988      17.96437500      53.25458240
I       38.22277012      15.56912500      44.37408240
I       34.42346922      15.56912500      40.62455769
I       33.39883078      17.96437500      49.50505769
I       38.61593078      17.96437500      48.18044231
I       39.64056922      15.56912500      39.29994231
I       31.63555532      15.56912500      46.43595689
I       36.18674468      17.96437500      37.55545689
I       41.40384468      17.96437500      42.36904311
I       36.85265532      15.56912500      51.24954311
I       33.00567012      15.56912500      53.31141760
I       34.81662988      17.96437500      62.19191760
I       40.03372988      17.96437500      71.01558240
I       38.22277012      15.56912500      62.13508240
I       34.42346922      15.56912500      58.38555769
I       33.39883078      17.96437500      67.26605769
I       38.61593078      17.96437500      65.94144231
I       39.64056922      15.56912500      57.06094231
I       31.63555532      15.56912500      64.19695689
I       36.18674468      17.96437500      55.31645689
I       41.40384468      17.96437500      60.13004311
I       36.85265532      15.56912500      69.01054311
I       33.00567012      20.35962500       0.02841760
I       34.81662988      22.75487500       8.90891760
I       40.03372988      22.75487500      17.73258240
I       38.22277012      20.35962500       8.85208240
I       34.42346922      20.35962500       5.10255769
I       33.39883078      22.75487500      13.98305769
I       38.61593078      22.75487500      12.65844231
I       39.64056922      20.35962500       3.77794231
I       31.63555532      20.35962500      10.91395689
I       36.18674468      22.75487500       2.03345689
I       41.40384468      22.75487500       6.84704311
I       36.85265532      20.35962500      15.72754311
I       33.00567012      20.35962500      17.78941760
I       34.81662988      22.75487500      26.66991760
I       40.03372988      22.75487500      35.49358240
I       38.22277012      20.35962500      26.61308240
I       34.42346922      20.35962500      22.86355769
I       33.39883078      22.75487500      31.74405769
I       38.61593078      22.75487500      30.41944231
I       39.64056922      20.35962500      21.53894231
I       31.63555532      20.35962500      28.67495689
I       36.18674468      22.75487500      19.79445689
I       41.40384468      22.75487500      24.60804311
I       36.85265532      20.35962500      33.48854311
I       33.00567012      20.35962500      35.55041760
I       34.81662988      22.75487500      44.43091760
I       40.03372988      22.75487500      53.25458240
I       38.22277012      20.35962500      44.37408240
I       34.42346922      20.35962500      40.62455769
I       33.39883078      22.75487500      49.50505769
I       38.61593078      22.75487500      48.18044231
I       39.64056922      20.35962500      39.29994231
I       31.63555532      20.35962500      46.43595689
I       36.18674468      22.75487500      37.55545689
I       41.40384468      22.75487500      42.36904311
I       36.85265532      20.35962500      51.24954311
I       33.00567012      20.35962500      53.31141760
I       34.81662988      22.75487500      62.19191760
I       40.03372988      22.75487500      71.01558240
I       38.22277012      20.35962500      62.13508240
I       34.42346922      20.35962500      58.38555769
I       33.39883078      22.75487500      67.26605769
I       38.61593078      22.75487500      65.94144231
I       39.64056922      20.35962500      57.06094231
I       31.63555532      20.35962500      64.19695689
I       36.18674468      22.75487500      55.31645689
I       41.40384468      22.75487500      60.13004311
I       36.85265532      20.35962500      69.01054311
I       33.00567012      25.15012500       0.02841760
I       34.81662988      27.54537500       8.90891760
I       40.03372988      27.54537500      17.73258240
I       38.22277012      25.15012500       8.85208240
I       34.42346922      25.15012500       5.10255769
I       33.39883078      27.54537500      13.98305769
I       38.61593078      27.54537500      12.65844231
I       39.64056922      25.15012500       3.77794231
I       31.63555532      25.15012500      10.91395689
I       36.18674468      27.54537500       2.03345689
I       41.40384468      27.54537500       6.84704311
I       36.85265532      25.15012500      15.72754311
I       33.00567012      25.15012500      17.78941760
I       34.81662988      27.54537500      26.66991760
I       40.03372988      27.54537500      35.49358240
I       38.22277012      25.15012500      26.61308240
I       34.42346922      25.15012500      22.86355769
I       33.39883078      27.54537500      31.74405769
I       38.61593078      27.54537500      30.41944231
I       39.64056922      25.15012500      21.53894231
I       31.63555532      25.15012500      28.67495689
I       36.18674468      27.54537500      19.79445689
I       41.40384468      27.54537500      24.60804311
I       36.85265532      25.15012500      33.48854311
I       33.00567012      25.15012500      35.55041760
I       34.81662988      27.54537500      44.43091760
I       40.03372988      27.54537500      53.25458240
I       38.22277012      25.15012500      44.37408240
I       34.42346922      25.15012500      40.62455769
I       33.39883078      27.54537500      49.50505769
I       38.61593078      27.54537500      48.18044231
I       39.64056922      25.15012500      39.29994231
I       31.63555532      25.15012500      46.43595689
I       36.18674468      27.54537500      37.55545689
I       41.40384468      27.54537500      42.36904311
I       36.85265532      25.15012500      51.24954311
I       33.00567012      25.15012500      53.31141760
I       34.81662988      27.54537500      62.19191760
I       40.03372988      27.54537500      71.01558240
I       38.22277012      25.15012500      62.13508240
I       34.42346922      25.15012500      58.38555769
I       33.39883078      27.54537500      67.26605769
I       38.61593078      27.54537500      65.94144231
I       39.64056922      25.15012500      57.06094231
I       31.63555532      25.15012500      64.19695689
I       36.18674468      27.54537500      55.31645689
I       41.40384468      27.54537500      60.13004311
I       36.85265532      25.15012500      69.01054311
I       33.00567012      29.94062500       0.02841760
I       34.81662988      32.33587500       8.90891760
I       40.03372988      32.33587500      17.73258240
I       38.22277012      29.94062500       8.85208240
I       34.42346922      29.94062500       5.10255769
I       33.39883078      32.33587500      13.98305769
I       38.61593078      32.33587500      12.65844231
I       39.64056922      29.94062500       3.77794231
I       31.63555532      29.94062500      10.91395689
I       36.18674468      32.33587500       2.03345689
I       41.40384468      32.33587500       6.84704311
I       36.85265532      29.94062500      15.72754311
I       33.00567012      29.94062500      17.78941760
I       34.81662988      32.33587500      26.66991760
I       40.03372988      32.33587500      35.49358240
I       38.22277012      29.94062500      26.61308240
I       34.42346922      29.94062500      22.86355769
I       33.39883078      32.33587500      31.74405769
I       38.61593078      32.33587500      30.41944231
I       39.64056922      29.94062500      21.53894231
I       31.63555532      29.94062500      28.67495689
I       36.18674468      32.33587500      19.79445689
I       41.40384468      32.33587500      24.60804311
I       36.85265532      29.94062500      33.48854311
I       33.00567012      29.94062500      35.55041760
I       34.81662988      32.33587500      44.43091760
I       40.03372988      32.33587500      53.25458240
I       38.22277012      29.94062500      44.37408240
I       34.42346922      29.94062500      40.62455769
I       33.39883078      32.33587500      49.50505769
I       38.61593078      32.33587500      48.18044231
I       39.64056922      29.94062500      39.29994231
I       31.63555532      29.94062500      46.43595689
I       36.18674468      32.33587500      37.55545689
I       41.40384468      32.33587500      42.36904311
I       36.85265532      29.94062500      51.24954311
I       33.00567012      29.94062500      53.31141760
I       34.81662988      32.33587500      62.19191760
I       40.03372988      32.33587500      71.01558240
I       38.22277012      29.94062500      62.13508240
I       34.42346922      29.94062500      58.38555769
I       33.39883078      32.33587500      67.26605769
I       38.61593078      32.33587500      65.94144231
I       39.64056922      29.94062500      57.06094231
I       31.63555532      29.94062500      64.19695689
I       36.18674468      32.33587500      55.31645689
I       41.40384468      32.33587500      60.13004311
I       36.85265532      29.94062500      69.01054311
I       33.00567012      34.73112500       0.02841760
I       34.81662988      37.12637500       8.90891760
I       40.03372988      37.12637500      17.73258240
I       38.22277012      34.73112500       8.85208240
I       34.42346922      34.73112500       5.10255769
I       33.39883078      37.12637500      13.98305769
I       38.61593078      37.12637500      12.65844231
I       39.64056922      34.73112500       3.77794231
I       31.63555532      34.73112500      10.91395689
I       36.18674468      37.12637500       2.03345689
I       41.40384468      37.12637500       6.84704311
I       36.85265532      34.73112500      15.72754311
I       33.00567012      34.73112500      17.78941760
I       34.81662988      37.12637500      26.66991760
I       40.03372988      37.12637500      35.49358240
I       38.22277012      34.73112500      26.61308240
I       34.42346922      34.73112500      22.86355769
I       33.39883078      37.12637500      31.74405769
I       38.61593078      37.12637500      30.41944231
I       39.64056922      34.73112500      21.53894231
I       31.63555532      34.73112500      28.67495689
I       36.18674468      37.12637500      19.79445689
I       41.40384468      37.12637500      24.60804311
I       36.85265532      34.73112500      33.48854311
I       33.00567012      34.73112500      35.55041760
I       34.81662988      37.12637500      44.43091760
I       40.03372988      37.12637500      53.25458240
I       38.22277012      34.73112500      44.37408240
I       34.42346922      34.73112500      40.62455769
I       33.39883078      37.12637500      49.50505769
I       38.61593078      37.12637500      48.18044231
I       39.64056922      34.73112500      39.29994231
I       31.63555532      34.73112500      46.43595689
I       36.18674468      37.12637500      37.55545689
I       41.40384468      37.12637500      42.36904311
I       36.85265532      34.73112500      51.24954311
I       33.00567012      34.73112500      53.31141760
I       34.81662988      37.12637500      62.19191760
I       40.03372988      37.12637500      71.01558240
I       38.22277012      34.73112500      62.13508240
I       34.42346922      34.73112500      58.38555769
I       33.39883078      37.12637500      67.26605769
I       38.61593078      37.12637500      65.94144231
I       39.64056922      34.73112500      57.06094231
I       31.63555532      34.73112500      64.19695689
I       36.18674468      37.12637500      55.31645689
I       41.40384468      37.12637500      60.13004311
I       36.85265532      34.73112500      69.01054311
I       33.00567012      39.52162500       0.02841760
I       34.81662988      41.91687500       8.90891760
I       40.03372988      41.91687500      17.73258240
I       38.22277012      39.52162500       8.85208240
I       34.42346922      39.52162500       5.10255769
I       33.39883078      41.91687500      13.98305769
I       38.61593078      41.91687500      12.65844231
I       39.64056922      39.52162500       3.77794231
I       31.63555532      39.52162500      10.91395689
I       36.18674468      41.91687500       2.03345689
I       41.40384468      41.91687500       6.84704311
I       36.85265532      39.52162500      15.72754311
I       33.00567012      39.52162500      17.78941760
I       34.81662988      41.91687500      26.66991760
I       40.03372988      41.91687500      35.49358240
I       38.22277012      39.52162500      26.61308240
I       34.42346922      39.52162500      22.86355769
I       33.39883078      41.91687500      31.74405769
I       38.61593078      41.91687500      30.41944231
I       39.64056922      39.52162500      21.53894231
I       31.63555532      39.52162500      28.67495689
I       36.18674468      41.91687500      19.79445689
I       41.40384468      41.91687500      24.60804311
I       36.85265532      39.52162500      33.48854311
I       33.00567012      39.52162500      35.55041760
I       34.81662988      41.91687500      44.43091760
I       40.03372988      41.91687500      53.25458240
I       38.22277012      39.52162500      44.37408240
I       34.42346922      39.52162500      40.62455769
I       33.39883078      41.91687500      49.50505769
I       38.61593078      41.91687500      48.18044231
I       39.64056922      39.52162500      39.29994231
I       31.63555532      39.52162500      46.43595689
I       36.18674468      41.91687500      37.55545689
I       41.40384468      41.91687500      42.36904311
I       36.85265532      39.52162500      51.24954311
I       33.00567012      39.52162500      53.31141760
I       34.81662988      41.91687500      62.19191760
I       40.03372988      41.91687500      71.01558240
I       38.22277012      39.52162500      62.13508240
I       34.42346922      39.52162500      58.38555769
I       33.39883078      41.91687500      67.26605769
I       38.61593078      41.91687500      65.94144231
I       39.64056922      39.52162500      57.06094231
I       31.63555532      39.52162500      64.19695689
I       36.18674468      41.91687500      55.31645689
I       41.40384468      41.91687500      60.13004311
I       36.85265532      39.52162500      69.01054311
I       33.00567012      44.31212500       0.02841760
I       34.81662988      46.70737500       8.90891760
I       40.03372988      46.70737500      17.73258240
I       38.22277012      44.31212500       8.85208240
I       34.42346922      44.31212500       5.10255769
I       33.39883078      46.70737500      13.98305769
I       38.61593078      46.70737500      12.65844231
I       39.64056922      44.31212500       3.77794231
I       31.63555532      44.31212500      10.91395689
I       36.18674468      46.70737500       2.03345689
I       41.40384468      46.70737500       6.84704311
I       36.85265532      44.31212500      15.72754311
I       33.00567012      44.31212500      17.78941760
I       34.81662988      46.70737500      26.66991760
I       40.03372988      46.70737500      35.49358240
I       38.22277012      44.31212500      26.61308240
I       34.42346922      44.31212500      22.86355769
I       33.39883078      46.70737500      31.74405769
I       38.61593078      46.70737500      30.41944231
I       39.64056922      44.31212500      21.53894231
I       31.63555532      44.31212500      28.67495689
I       36.18674468      46.70737500      19.79445689
I       41.40384468      46.70737500      24.60804311
I       36.85265532      44.31212500      33.48854311
I       33.00567012      44.31212500      35.55041760
I       34.81662988      46.70737500      44.43091760
I       40.03372988      46.70737500      53.25458240
I       38.22277012      44.31212500      44.37408240
I       34.42346922      44.31212500      40.62455769
I       33.39883078      46.70737500      49.50505769
I       38.61593078      46.70737500      48.18044231
I       39.64056922      44.31212500      39.29994231
I       31.63555532      44.31212500      46.43595689
I       36.18674468      46.70737500      37.55545689
I       41.40384468      46.70737500      42.36904311
I       36.85265532      44.31212500      51.24954311
I       33.00567012      44.31212500      53.31141760
I       34.81662988      46.70737500      62.19191760
I       40.03372988      46.70737500      71.01558240
I       38.22277012      44.31212500      62.13508240
I       34.42346922      44.31212500      58.38555769
I       33.39883078      46.70737500      67.26605769
I       38.61593078      46.70737500      65.94144231
I       39.64056922      44.31212500      57.06094231
I       31.63555532      44.31212500      64.19695689
I       36.18674468      46.70737500      55.31645689
I       41.40384468      46.70737500      60.13004311
I       36.85265532      44.31212500      69.01054311
I       33.00567012      49.10262500       0.02841760
I       34.81662988      51.49787500       8.90891760
I       40.03372988      51.49787500      17.73258240
I       38.22277012      49.10262500       8.85208240
I       34.42346922      49.10262500       5.10255769
I       33.39883078      51.49787500      13.98305769
I       38.61593078      51.49787500      12.65844231
I       39.64056922      49.10262500       3.77794231
I       31.63555532      49.10262500      10.91395689
I       36.18674468      51.49787500       2.03345689
I       41.40384468      51.49787500       6.84704311
I       36.85265532      49.10262500      15.72754311
I       33.00567012      49.10262500      17.78941760
I       34.81662988      51.49787500      26.66991760
I       40.03372988      51.49787500      35.49358240
I       38.22277012      49.10262500      26.61308240
I       34.42346922      49.10262500      22.86355769
I       33.39883078      51.49787500      31.74405769
I       38.61593078      51.49787500      30.41944231
I       39.64056922      49.10262500      21.53894231
I       31.63555532      49.10262500      28.67495689
I       36.18674468      51.49787500      19.79445689
I       41.40384468      51.49787500      24.60804311
I       36.85265532      49.10262500      33.48854311
I       33.00567012      49.10262500      35.55041760
I       34.81662988      51.49787500      44.43091760
I       40.03372988      51.49787500      53.25458240
I       38.22277012      49.10262500      44.37408240
I       34.42346922      49.10262500      40.62455769
I       33.39883078      51.49787500      49.50505769
I       38.61593078      51.49787500      48.18044231
I       39.64056922      49.10262500      39.29994231
I       31.63555532      49.10262500      46.43595689
I       36.18674468      51.49787500      37.55545689
I       41.40384468      51.49787500      42.36904311
I       36.85265532      49.10262500      51.24954311
I       33.00567012      49.10262500      53.31141760
I       34.81662988      51.49787500      62.19191760
I       40.03372988      51.49787500      71.01558240
I       38.22277012      49.10262500      62.13508240
I       34.42346922      49.10262500      58.38555769
I       33.39883078      51.49787500      67.26605769
I       38.61593078      51.49787500      65.94144231
I       39.64056922      49.10262500      57.06094231
I       31.63555532      49.10262500      64.19695689
I       36.18674468      51.49787500      55.31645689
I       41.40384468      51.49787500      60.13004311
I       36.85265532      49.10262500      69.01054311
I       33.00567012      53.89312500       0.02841760
I       34.81662988      56.28837500       8.90891760
I       40.03372988      56.28837500      17.73258240
I       38.22277012      53.89312500       8.85208240
I       34.42346922      53.89312500       5.10255769
I       33.39883078      56.28837500      13.98305769
I       38.61593078      56.28837500      12.65844231
I       39.64056922      53.89312500       3.77794231
I       31.63555532      53.89312500      10.91395689
I       36.18674468      56.28837500       2.03345689
I       41.40384468      56.28837500       6.84704311
I       36.85265532      53.89312500      15.72754311
I       33.00567012      53.89312500      17.78941760
I       34.81662988      56.28837500      26.66991760
I       40.03372988      56.28837500      35.49358240
I       38.22277012      53.89312500      26.61308240
I       34.42346922      53.89312500      22.86355769
I       33.39883078      56.28837500      31.74405769
I       38.61593078      56.28837500      30.41944231
I       39.64056922      53.89312500      21.53894231
I       31.63555532      53.89312500      28.67495689
I       36.18674468      56.28837500      19.79445689
I       41.40384468      56.28837500      24.60804311
I       36.85265532      53.89312500      33.48854311
I       33.00567012      53.89312500      35.55041760
I       34.81662988      56.28837500      44.43091760
I       40.03372988      56.28837500      53.25458240
I       38.22277012      53.89312500      44.37408240
I       34.42346922      53.89312500      40.62455769
I       33.39883078      56.28837500      49.50505769
I       38.61593078      56.28837500      48.18044231
I       39.64056922      53.89312500      39.29994231
I       31.63555532      53.89312500      46.43595689
I       36.18674468      56.28837500      37.55545689
I       41.40384468      56.28837500      42.36904311
I       36.85265532      53.89312500      51.24954311
I       33.00567012      53.89312500      53.31141760
I       34.81662988      56.28837500      62.19191760
I       40.03372988      56.28837500      71.01558240
I       38.22277012      53.89312500      62.13508240
I       34.42346922      53.89312500      58.38555769
I       33.39883078      56.28837500      67.26605769
I       38.61593078      56.28837500      65.94144231
I       39.64056922      53.89312500      57.06094231
I       31.63555532      53.89312500      64.19695689
I       36.18674468      56.28837500      55.31645689
I       41.40384468      56.28837500      60.13004311
I       36.85265532      53.89312500      69.01054311
I       33.00567012      58.68362500       0.02841760
I       34.81662988      61.07887500       8.90891760
I       40.03372988      61.07887500      17.73258240
I       38.22277012      58.68362500       8.85208240
I       34.42346922      58.68362500       5.10255769
I       33.39883078      61.07887500      13.98305769
I       38.61593078      61.07887500      12.65844231
I       39.64056922      58.68362500       3.77794231
I       31.63555532      58.68362500      10.91395689
I       36.18674468      61.07887500       2.03345689
I       41.40384468      61.07887500       6.84704311
I       36.85265532      58.68362500      15.72754311
I       33.00567012      58.68362500      17.78941760
I       34.81662988      61.07887500      26.66991760
I       40.03372988      61.07887500      35.49358240
I       38.22277012      58.68362500      26.61308240
I       34.42346922      58.68362500      22.86355769
I       33.39883078      61.07887500      31.74405769
I       38.61593078      61.07887500      30.41944231
I       39.64056922      58.68362500      21.53894231
I       31.63555532      58.68362500      28.67495689
I       36.18674468      61.07887500      19.79445689
I       41.40384468      61.07887500      24.60804311
I       36.85265532      58.68362500      33.48854311
I       33.00567012      58.68362500      35.55041760
I       34.81662988      61.07887500      44.43091760
I       40.03372988      61.07887500      53.25458240
I       38.22277012      58.68362500      44.37408240
I       34.42346922      58.68362500      40.62455769
I       33.39883078      61.07887500      49.50505769
I       38.61593078      61.07887500      48.18044231
I       39.64056922      58.68362500      39.29994231
I       31.63555532      58.68362500      46.43595689
I       36.18674468      61.07887500      37.55545689
I       41.40384468      61.07887500      42.36904311
I       36.85265532      58.68362500      51.24954311
I       33.00567012      58.68362500      53.31141760
I       34.81662988      61.07887500      62.19191760
I       40.03372988      61.07887500      71.01558240
I       38.22277012      58.68362500      62.13508240
I       34.42346922      58.68362500      58.38555769
I       33.39883078      61.07887500      67.26605769
I       38.61593078      61.07887500      65.94144231
I       39.64056922      58.68362500      57.06094231
I       31.63555532      58.68362500      64.19695689
I       36.18674468      61.07887500      55.31645689
I       41.40384468      61.07887500      60.13004311
I       36.85265532      58.68362500      69.01054311
I       33.00567012      63.47412500       0.02841760
I       34.81662988      65.86937500       8.90891760
I       40.03372988      65.86937500      17.73258240
I       38.22277012      63.47412500       8.85208240
I       34.42346922      63.47412500       5.10255769
I       33.39883078      65.86937500      13.98305769
I       38.61593078      65.86937500      12.65844231
I       39.64056922      63.47412500       3.77794231
I       31.63555532      63.47412500      10.91395689
I       36.18674468      65.86937500       2.03345689
I       41.40384468      65.86937500       6.84704311
I       36.85265532      63.47412500      15.72754311
I       33.00567012      63.47412500      17.78941760
I       34.81662988      65.86937500      26.66991760
I       40.03372988      65.86937500      35.49358240
I       38.22277012      63.47412500      26.61308240
I       34.42346922      63.47412500      22.86355769
I       33.39883078      65.86937500      31.74405769
I       38.61593078      65.86937500      30.41944231
I       39.64056922      63.47412500      21.53894231
I       31.63555532      63.47412500      28.67495689
I       36.18674468      65.86937500      19.79445689
I       41.40384468      65.86937500      24.60804311
I       36.85265532      63.47412500      33.48854311
I       33.00567012      63.47412500      35.55041760
I       34.81662988      65.86937500      44.43091760
I       40.03372988      65.86937500      53.25458240
I       38.22277012      63.47412500      44.37408240
I       34.42346922      63.47412500      40.62455769
I       33.39883078      65.86937500      49.50505769
I       38.61593078      65.86937500      48.18044231
I       39.64056922      63.47412500      39.29994231
I       31.63555532      63.47412500      46.43595689
I       36.18674468      65.86937500      37.55545689
I       41.40384468      65.86937500      42.36904311
I       36.85265532      63.47412500      51.24954311
I       33.00567012      63.47412500      53.31141760
I       34.81662988      65.86937500      62.19191760
I       40.03372988      65.86937500      71.01558240
I       38.22277012      63.47412500      62.13508240
I       34.42346922      63.47412500      58.38555769
I       33.39883078      65.86937500      67.26605769
I       38.61593078      65.86937500      65.94144231
I       39.64056922      63.47412500      57.06094231
I       31.63555532      63.47412500      64.19695689
I       36.18674468      65.86937500      55.31645689
I       41.40384468      65.86937500      60.13004311
I       36.85265532      63.47412500      69.01054311
I       33.00567012      68.26462500       0.02841760
I       34.81662988      70.65987500       8.90891760
I       40.03372988      70.65987500      17.73258240
I       38.22277012      68.26462500       8.85208240
I       34.42346922      68.26462500       5.10255769
I       33.39883078      70.65987500      13.98305769
I       38.61593078      70.65987500      12.65844231
I       39.64056922      68.26462500       3.77794231
I       31.63555532      68.26462500      10.91395689
I       36.18674468      70.65987500       2.03345689
I       41.40384468      70.65987500       6.84704311
I       36.85265532      68.26462500      15.72754311
I       33.00567012      68.26462500      17.78941760
I       34.81662988      70.65987500      26.66991760
I       40.03372988      70.65987500      35.49358240
I       38.22277012      68.26462500      26.61308240
I       34.42346922      68.26462500      22.86355769
I       33.39883078      70.65987500      31.74405769
I       38.61593078      70.65987500      30.41944231
I       39.64056922      68.26462500      21.53894231
I       31.63555532      68.26462500      28.67495689
I       36.18674468      70.65987500      19.79445689
I       41.40384468      70.65987500      24.60804311
I       36.85265532      68.26462500      33.48854311
I       33.00567012      68.26462500      35.55041760
I       34.81662988      70.65987500      44.43091760
I       40.03372988      70.65987500      53.25458240
I       38.22277012      68.26462500      44.37408240
I       34.42346922      68.26462500      40.62455769
I       33.39883078      70.65987500      49.50505769
I       38.61593078      70.65987500      48.18044231
I       39.64056922      68.26462500      39.29994231
I       31.63555532      68.26462500      46.43595689
I       36.18674468      70.65987500      37.55545689
I       41.40384468      70.65987500      42.36904311
I       36.85265532      68.26462500      51.24954311
I       33.00567012      68.26462500      53.31141760
I       34.81662988      70.65987500      62.19191760
I       40.03372988      70.65987500      71.01558240
I       38.22277012      68.26462500      62.13508240
I       34.42346922      68.26462500      58.38555769
I       33.39883078      70.65987500      67.26605769
I       38.61593078      70.65987500      65.94144231
I       39.64056922      68.26462500      57.06094231
I       31.63555532      68.26462500      64.19695689
I       36.18674468      70.65987500      55.31645689
I       41.40384468      70.65987500      60.13004311
I       36.85265532      68.26462500      69.01054311
I       33.00567012      73.05512500       0.02841760
I       34.81662988      75.45037500       8.90891760
I       40.03372988      75.45037500      17.73258240
I       38.22277012      73.05512500       8.85208240
I       34.42346922      73.05512500       5.10255769
I       33.39883078      75.45037500      13.98305769
I       38.61593078      75.45037500      12.65844231
I       39.64056922      73.05512500       3.77794231
I       31.63555532      73.05512500      10.91395689
I       36.18674468      75.45037500       2.03345689
I       41.40384468      75.45037500       6.84704311
I       36.85265532      73.05512500      15.72754311
I       33.00567012      73.05512500      17.78941760
I       34.81662988      75.45037500      26.66991760
I       40.03372988      75.45037500      35.49358240
I       38.22277012      73.05512500      26.61308240
I       34.42346922      73.05512500      22.86355769
I       33.39883078      75.45037500      31.74405769
I       38.61593078      75.45037500      30.41944231
I       39.64056922      73.05512500      21.53894231
I       31.63555532      73.05512500      28.67495689
I       36.18674468      75.45037500      19.79445689
I       41.40384468      75.45037500      24.60804311
I       36.85265532      73.05512500      33.48854311
I       33.00567012      73.05512500      35.55041760
I       34.81662988      75.45037500      44.43091760
I       40.03372988      75.45037500      53.25458240
I       38.22277012      73.05512500      44.37408240
I       34.42346922      73.05512500      40.62455769
I       33.39883078      75.45037500      49.50505769
I       38.61593078      75.45037500      48.18044231
I       39.64056922      73.05512500      39.29994231
I       31.63555532      73.05512500      46.43595689
I       36.18674468      75.45037500      37.55545689
I       41.40384468      75.45037500      42.36904311
I       36.85265532      73.05512500      51.24954311
I       33.00567012      73.05512500      53.31141760
I       34.81662988      75.45037500      62.19191760
I       40.03372988      75.45037500      71.01558240
I       38.22277012      73.05512500      62.13508240
I       34.42346922      73.05512500      58.38555769
I       33.39883078      75.45037500      67.26605769
I       38.61593078      75.45037500      65.94144231
I       39.64056922      73.05512500      57.06094231
I       31.63555532      73.05512500      64.19695689
I       36.18674468      75.45037500      55.31645689
I       41.40384468      75.45037500      60.13004311
I       36.85265532      73.05512500      69.01054311
I       33.00567012      77.84562500       0.02841760
I       34.81662988      80.24087500       8.90891760
I       40.03372988      80.24087500      17.73258240
I       38.22277012      77.84562500       8.85208240
I       34.42346922      77.84562500       5.10255769
I       33.39883078      80.24087500      13.98305769
I       38.61593078      80.24087500      12.65844231
I       39.64056922      77.84562500       3.77794231
I       31.63555532      77.84562500      10.91395689
I       36.18674468      80.24087500       2.03345689
I       41.40384468      80.24087500       6.84704311
I       36.85265532      77.84562500      15.72754311
I       33.00567012      77.84562500      17.78941760
I       34.81662988      80.24087500      26.66991760
I       40.03372988      80.24087500      35.49358240
I       38.22277012      77.84562500      26.61308240
I       34.42346922      77.84562500      22.86355769
I       33.39883078      80.24087500      31.74405769
I       38.61593078      80.24087500      30.41944231
I       39.64056922      77.84562500      21.53894231
I       31.63555532      77.84562500      28.67495689
I       36.18674468      80.24087500      19.79445689
I       41.40384468      80.24087500      24.60804311
I       36.85265532      77.84562500      33.48854311
I       33.00567012      77.84562500      35.55041760
I       34.81662988      80.24087500      44.43091760
I       40.03372988      80.24087500      53.25458240
I       38.22277012      77.84562500      44.37408240
I       34.42346922      77.84562500      40.62455769
I       33.39883078      80.24087500      49.50505769
I       38.61593078      80.24087500      48.18044231
I       39.64056922      77.84562500      39.29994231
I       31.63555532      77.84562500      46.43595689
I       36.18674468      80.24087500      37.55545689
I       41.40384468      80.24087500      42.36904311
I       36.85265532      77.84562500      51.24954311
I       33.00567012      77.84562500      53.31141760
I       34.81662988      80.24087500      62.19191760
I       40.03372988      80.24087500      71.01558240
I       38.22277012      77.84562500      62.13508240
I       34.42346922      77.84562500      58.38555769
I       33.39883078      80.24087500      67.26605769
I       38.61593078      80.24087500      65.94144231
I       39.64056922      77.84562500      57.06094231
I       31.63555532      77.84562500      64.19695689
I       36.18674468      80.24087500      55.31645689
I       41.40384468      80.24087500      60.13004311
I       36.85265532      77.84562500      69.01054311
I       33.00567012      82.63612500       0.02841760
I       34.81662988      85.03137500       8.90891760
I       40.03372988      85.03137500      17.73258240
I       38.22277012      82.63612500       8.85208240
I       34.42346922      82.63612500       5.10255769
I       33.39883078      85.03137500      13.98305769
I       38.61593078      85.03137500      12.65844231
I       39.64056922      82.63612500       3.77794231
I       31.63555532      82.63612500      10.91395689
I       36.18674468      85.03137500       2.03345689
I       41.40384468      85.03137500       6.84704311
I       36.85265532      82.63612500      15.72754311
I       33.00567012      82.63612500      17.78941760
I       34.81662988      85.03137500      26.66991760
I       40.03372988      85.03137500      35.49358240
I       38.22277012      82.63612500      26.61308240
I       34.42346922      82.63612500      22.86355769
I       33.39883078      85.03137500      31.74405769
I       38.61593078      85.03137500      30.41944231
I       39.64056922      82.63612500      21.53894231
I       31.63555532      82.63612500      28.67495689
I       36.18674468      85.03137500      19.79445689
I       41.40384468      85.03137500      24.60804311
I       36.85265532      82.63612500      33.48854311
I       33.00567012      82.63612500      35.55041760
I       34.81662988      85.03137500      44.43091760
I       40.03372988      85.03137500      53.25458240
I       38.22277012      82.63612500      44.37408240
I       34.42346922      82.63612500      40.62455769
I       33.39883078      85.03137500      49.50505769
I       38.61593078      85.03137500      48.18044231
I       39.64056922      82.63612500      39.29994231
I       31.63555532      82.63612500      46.43595689
I       36.18674468      85.03137500      37.55545689
I       41.40384468      85.03137500      42.36904311
I       36.85265532      82.63612500      51.24954311
I       33.00567012      82.63612500      53.31141760
I       34.81662988      85.03137500      62.19191760
I       40.03372988      85.03137500      71.01558240
I       38.22277012      82.63612500      62.13508240
I       34.42346922      82.63612500      58.38555769
I       33.39883078      85.03137500      67.26605769
I       38.61593078      85.03137500      65.94144231
I       39.64056922      82.63612500      57.06094231
I       31.63555532      82.63612500      64.19695689
I       36.18674468      85.03137500      55.31645689
I       41.40384468      85.03137500      60.13004311
I       36.85265532      82.63612500      69.01054311
I       43.43987012       1.19762500       0.02841760
I       45.25082988       3.59287500       8.90891760
I       50.46792988       3.59287500      17.73258240
I       48.65697012       1.19762500       8.85208240
I       44.85766922       1.19762500       5.10255769
I       43.83303078       3.59287500      13.98305769
I       49.05013078       3.59287500      12.65844231
I       50.07476922       1.19762500       3.77794231
I       42.06975532       1.19762500      10.91395689
I       46.62094468       3.59287500       2.03345689
I       51.83804468       3.59287500       6.84704311
I       47.28685532       1.19762500      15.72754311
I       43.43987012       1.19762500      17.78941760
I       45.25082988       3.59287500      26.66991760
I       50.46792988       3.59287500      35.49358240
I       48.65697012       1.19762500      26.61308240
I       44.85766922       1.19762500      22.86355769
I       43.83303078       3.59287500      31.74405769
I       49.05013078       3.59287500      30.41944231
I       50.07476922       1.19762500      21.53894231
I       42.06975532       1.19762500      28.67495689
I       46.62094468       3.59287500      19.79445689
I       51.83804468       3.59287500      24.60804311
I       47.28685532       1.19762500      33.48854311
I       43.43987012       1.19762500      35.55041760
I       45.25082988       3.59287500      44.43091760
I       50.46792988       3.59287500      53.25458240
I       48.65697012       1.19762500      44.37408240
I       44.85766922       1.19762500      40.62455769
I       43.83303078       3.59287500      49.50505769
I       49.05013078       3.59287500      48.18044231
I       50.07476922       1.19762500      39.29994231
I       42.06975532       1.19762500      46.43595689
I       46.62094468       3.59287500      37.55545689
I       51.83804468       3.59287500      42.36904311
I       47.28685532       1.19762500      51.24954311
I       43.43987012       1.19762500      53.31141760
I       45.25082988       3.59287500      62.19191760
I       50.46792988       3.59287500      71.01558240
I       48.65697012       1.19762500      62.13508240
I       44.85766922       1.19762500      58.38555769
I       43.83303078       3.59287500      67.26605769
I       49.05013078       3.59287500      65.94144231
I       50.07476922       1.19762500      57.06094231
I       42.06975532       1.19762500      64.19695689
I       46.62094468       3.59287500      55.31645689
I       51.83804468       3.59287500      60.13004311
I       47.28685532       1.19762500      69.01054311
I       43.43987012       5.98812500       0.02841760
I       45.25082988       8.38337500       8.90891760
I       50.46792988       8.38337500      17.73258240
I       48.65697012       5.98812500       8.85208240
I       44.85766922       5.98812500       5.10255769
I       43.83303078       8.38337500      13.98305769
I       49.05013078       8.38337500      12.65844231
I       50.07476922       5.98812500       3.77794231
I       42.06975532       5.98812500      10.91395689
I       46.62094468       8.38337500       2.03345689
I       51.83804468       8.38337500       6.84704311
I       47.28685532       5.98812500      15.72754311
I       43.43987012       5.98812500      17.78941760
I       45.25082988       8.38337500      26.66991760
I       50.46792988       8.38337500      35.49358240
I       48.65697012       5.98812500      26.61308240
I       44.85766922       5.98812500      22.86355769
I       43.83303078       8.38337500      31.74405769
I       49.05013078       8.38337500      30.41944231
I       50.07476922       5.98812500      21.53894231
I       42.06975532       5.98812500      28.67495689
I       46.62094468       8.38337500      19.79445689
I       51.83804468       8.38337500      24.60804311
I       47.28685532       5.98812500      33.48854311
I       43.43987012       5.98812500      35.55041760
I       45.25082988       8.38337500      44.43091760
I       50.46792988       8.38337500      53.25458240
I       48.65697012       5.98812500      44.37408240
I       44.85766922       5.98812500      40.62455769
I       43.83303078       8.38337500      49.50505769
I       49.05013078       8.38337500      48.18044231
I       50.07476922       5.98812500      39.29994231
I       42.06975532       5.98812500      46.43595689
I       46.62094468       8.38337500      37.55545689
I       51.83804468       8.38337500      42.36904311
I       47.28685532       5.98812500      51.24954311
I       43.43987012       5.98812500      53.31141760
I       45.25082988       8.38337500      62.19191760
I       50.46792988       8.38337500      71.01558240
I       48.65697012       5.98812500      62.13508240
I       44.85766922       5.98812500      58.38555769
I       43.83303078       8.38337500      67.26605769
I       49.05013078       8.38337500      65.94144231
I       50.07476922       5.98812500      57.06094231
I       42.06975532       5.98812500      64.19695689
I       46.62094468       8.38337500      55.31645689
I       51.83804468       8.38337500      60.13004311
I       47.28685532       5.98812500      69.01054311
I       43.43987012      10.77862500       0.02841760
I       45.25082988      13.17387500       8.90891760
I       50.46792988      13.17387500      17.73258240
I       48.65697012      10.77862500       8.85208240
I       44.85766922      10.77862500       5.10255769
I       43.83303078      13.17387500      13.98305769
I       49.05013078      13.17387500      12.65844231
I       50.07476922      10.77862500       3.77794231
I       42.06975532      10.77862500      10.91395689
I       46.62094468      13.17387500       2.03345689
I       51.83804468      13.17387500       6.84704311
I       47.28685532      10.77862500      15.72754311
I       43.43987012      10.77862500      17.78941760
I       45.25082988      13.17387500      26.66991760
I       50.46792988      13.17387500      35.49358240
I       48.65697012      10.77862500      26.61308240
I       44.85766922      10.77862500      22.86355769
I       43.83303078      13.17387500      31.74405769
I       49.05013078      13.17387500      30.41944231
I       50.07476922      10.77862500      21.53894231
I       42.06975532      10.77862500      28.67495689
I       46.62094468      13.17387500      19.79445689
I       51.83804468      13.17387500      24.60804311
I       47.28685532      10.77862500      33.48854311
I       43.43987012      10.77862500      35.55041760
I       45.25082988      13.17387500      44.43091760
I       50.46792988      13.17387500      53.25458240
I       48.65697012      10.77862500      44.37408240
I       44.85766922      10.77862500      40.62455769
I       43.83303078      13.17387500      49.50505769
I       49.05013078      13.17387500      48.18044231
I       50.07476922      10.77862500      39.29994231
I       42.06975532      10.77862500      46.43595689
I       46.62094468      13.17387500      37.55545689
I       51.83804468      13.17387500      42.36904311
I       47.28685532      10.77862500      51.24954311
I       43.43987012      10.77862500      53.31141760
I       45.25082988      13.17387500      62.19191760
I       50.46792988      13.17387500      71.01558240
I       48.65697012      10.77862500      62.13508240
I       44.85766922      10.77862500      58.38555769
I       43.83303078      13.17387500      67.26605769
I       49.05013078      13.17387500      65.94144231
I       50.07476922      10.77862500      57.06094231
I       42.06975532      10.77862500      64.19695689
I       46.62094468      13.17387500      55.31645689
I       51.83804468      13.17387500      60.13004311
I       47.28685532      10.77862500      69.01054311
I       43.43987012      15.56912500       0.02841760
I       45.25082988      17.96437500       8.90891760
I       50.46792988      17.96437500      17.73258240
I       48.65697012      15.56912500       8.85208240
I       44.85766922      15.56912500       5.10255769
I       43.83303078      17.96437500      13.98305769
I       49.05013078      17.96437500      12.65844231
I       50.07476922      15.56912500       3.77794231
I       42.06975532      15.56912500      10.91395689
I       46.62094468      17.96437500       2.03345689
I       51.83804468      17.96437500       6.84704311
I       47.28685532      15.56912500      15.72754311
I       43.43987012      15.56912500      17.78941760
I       45.25082988      17.96437500      26.66991760
I       50.46792988      17.96437500      35.49358240
I       48.65697012      15.56912500      26.61308240
I       44.85766922      15.56912500      22.86355769
I       43.83303078      17.96437500      31.74405769
I       49.05013078      17.96437500      30.41944231
I       50.07476922      15.56912500      21.53894231
I       42.06975532      15.56912500      28.67495689
I       46.62094468      17.96437500      19.79445689
I       51.83804468      17.96437500      24.60804311
I       47.28685532      15.56912500      33.48854311
I       43.43987012      15.56912500      35.55041760
I       45.25082988      17.96437500      44.43091760
I       50.46792988      17.96437500      53.25458240
I       48.65697012      15.56912500      44.37408240
I       44.85766922      15.56912500      40.62455769
I       43.83303078      17.96437500      49.50505769
I       49.05013078      17.96437500      48.18044231
I       50.07476922      15.56912500      39.29994231
I       42.06975532      15.56912500      46.43595689
I       46.62094468      17.96437500      37.55545689
I       51.83804468      17.96437500      42.36904311
I       47.28685532      15.56912500      51.24954311
I       43.43987012      15.56912500      53.31141760
I       45.25082988      17.96437500      62.19191760
I       50.46792988      17.96437500      71.01558240
I       48.65697012      15.56912500      62.13508240
I       44.85766922      15.56912500      58.38555769
I       43.83303078      17.96437500      67.26605769
I       49.05013078      17.96437500      65.94144231
I       50.07476922      15.56912500      57.06094231
I       42.06975532      15.56912500      64.19695689
I       46.62094468      17.96437500      55.31645689
I       51.83804468      17.96437500      60.13004311
I       47.28685532      15.56912500      69.01054311
I       43.43987012      20.35962500       0.02841760
I       45.25082988      22.75487500       8.90891760
I       50.46792988      22.75487500      17.73258240
I       48.65697012      20.35962500       8.85208240
I       44.85766922      20.35962500       5.10255769
I       43.83303078      22.75487500      13.98305769
I       49.05013078      22.75487500      12.65844231
I       50.07476922      20.35962500       3.77794231
I       42.06975532      20.35962500      10.91395689
I       46.62094468      22.75487500       2.03345689
I       51.83804468      22.75487500       6.84704311
I       47.28685532      20.35962500      15.72754311
I       43.43987012      20.35962500      17.78941760
I       45.25082988      22.75487500      26.66991760
I       50.46792988      22.75487500      35.49358240
I       48.65697012      20.35962500      26.61308240
I       44.85766922      20.35962500      22.86355769
I       43.83303078      22.75487500      31.74405769
I       49.05013078      22.75487500      30.41944231
I       50.07476922      20.35962500      21.53894231
I       42.06975532      20.35962500      28.67495689
I       46.62094468      22.75487500      19.79445689
I       51.83804468      22.75487500      24.60804311
I       47.28685532      20.35962500      33.48854311
I       43.43987012      20.35962500      35.55041760
I       45.25082988      22.75487500      44.43091760
I       50.46792988      22.75487500      53.25458240
I       48.65697012      20.35962500      44.37408240
I       44.85766922      20.35962500      40.62455769
I       43.83303078      22.75487500      49.50505769
I       49.05013078      22.75487500      48.18044231
I       50.07476922      20.35962500      39.29994231
I       42.06975532      20.35962500      46.43595689
I       46.62094468      22.75487500      37.55545689
I       51.83804468      22.75487500      42.36904311
I       47.28685532      20.35962500      51.24954311
I       43.43987012      20.35962500      53.31141760
I       45.25082988      22.75487500      62.19191760
I       50.46792988      22.75487500      71.01558240
I       48.65697012      20.35962500      62.13508240
I       44.85766922      20.35962500      58.38555769
I       43.83303078      22.75487500      67.26605769
I       49.05013078      22.75487500      65.94144231
I       50.07476922      20.35962500      57.06094231
I       42.06975532      20.35962500      64.19695689
I       46.62094468      22.75487500      55.31645689
I       51.83804468      22.75487500      60.13004311
I       47.28685532      20.35962500      69.01054311
I       43.43987012      25.15012500       0.02841760
I       45.25082988      27.54537500       8.90891760
I       50.46792988      27.54537500      17.73258240
I       48.65697012      25.15012500       8.85208240
I       44.85766922      25.15012500       5.10255769
I       43.83303078      27.54537500      13.98305769
I       49.05013078      27.54537500      12.65844231
I       50.07476922      25.15012500       3.77794231
I       42.06975532      25.15012500      10.91395689
I       46.62094468      27.54537500       2.03345689
I       51.83804468      27.54537500       6.84704311
I       47.28685532      25.15012500      15.72754311
I       43.43987012      25.15012500      17.78941760
I       45.25082988      27.54537500      26.66991760
I       50.46792988      27.54537500      35.49358240
I       48.65697012      25.15012500      26.61308240
I       44.85766922      25.15012500      22.86355769
I       43.83303078      27.54537500      31.74405769
I       49.05013078      27.54537500      30.41944231
I       50.07476922      25.15012500      21.53894231
I       42.06975532      25.15012500      28.67495689
I       46.62094468      27.54537500      19.79445689
I       51.83804468      27.54537500      24.60804311
I       47.28685532      25.15012500      33.48854311
I       43.43987012      25.15012500      35.55041760
I       45.25082988      27.54537500      44.43091760
I       50.46792988      27.54537500      53.25458240
I       48.65697012      25.15012500      44.37408240
I       44.85766922      25.15012500      40.62455769
I       43.83303078      27.54537500      49.50505769
I       49.05013078      27.54537500      48.18044231
I       50.07476922      25.15012500      39.29994231
I       42.06975532      25.15012500      46.43595689
I       46.62094468      27.54537500      37.55545689
I       51.83804468      27.54537500      42.36904311
I       47.28685532      25.15012500      51.24954311
I       43.43987012      25.15012500      53.31141760
I       45.25082988      27.54537500      62.19191760
I       50.46792988      27.54537500      71.01558240
I       48.65697012      25.15012500      62.13508240
I       44.85766922      25.15012500      58.38555769
I       43.83303078      27.54537500      67.26605769
I       49.05013078      27.54537500      65.94144231
I       50.07476922      25.15012500      57.06094231
I       42.06975532      25.15012500      64.19695689
I       46.62094468      27.54537500      55.31645689
I       51.83804468      27.54537500      60.13004311
I       47.28685532      25.15012500      69.01054311
I       43.43987012      29.94062500       0.02841760
I       45.25082988      32.33587500       8.90891760
I       50.46792988      32.33587500      17.73258240
I       48.65697012      29.94062500       8.85208240
I       44.85766922      29.94062500       5.10255769
I       43.83303078      32.33587500      13.98305769
I       49.05013078      32.33587500      12.65844231
I       50.07476922      29.94062500       3.77794231
I       42.06975532      29.94062500      10.91395689
I       46.62094468      32.33587500       2.03345689
I       51.83804468      32.33587500       6.84704311
I       47.28685532      29.94062500      15.72754311
I       43.43987012      29.94062500      17.78941760
I       45.25082988      32.33587500      26.66991760
I       50.46792988      32.33587500      35.49358240
I       48.65697012      29.94062500      26.61308240
I       44.85766922      29.94062500      22.86355769
I       43.83303078      32.33587500      31.74405769
I       49.05013078      32.33587500      30.41944231
I       50.07476922      29.94062500      21.53894231
I       42.06975532      29.94062500      28.67495689
I       46.62094468      32.33587500      19.79445689
I       51.83804468      32.33587500      24.60804311
I       47.28685532      29.94062500      33.48854311
I       43.43987012      29.94062500      35.55041760
I       45.25082988      32.33587500      44.43091760
I       50.46792988      32.33587500      53.25458240
I       48.65697012      29.94062500      44.37408240
I       44.85766922      29.94062500      40.62455769
I       43.83303078      32.33587500      49.50505769
I       49.05013078      32.33587500      48.18044231
I       50.07476922      29.94062500      39.29994231
I       42.06975532      29.94062500      46.43595689
I       46.62094468      32.33587500      37.55545689
I       51.83804468      32.33587500      42.36904311
I       47.28685532      29.94062500      51.24954311
I       43.43987012      29.94062500      53.31141760
I       45.25082988      32.33587500      62.19191760
I       50.46792988      32.33587500      71.01558240
I       48.65697012      29.94062500      62.13508240
I       44.85766922      29.94062500      58.38555769
I       43.83303078      32.33587500      67.26605769
I       49.05013078      32.33587500      65.94144231
I       50.07476922      29.94062500      57.06094231
I       42.06975532      29.94062500      64.19695689
I       46.62094468      32.33587500      55.31645689
I       51.83804468      32.33587500      60.13004311
I       47.28685532      29.94062500      69.01054311
I       43.43987012      34.73112500       0.02841760
I       45.25082988      37.12637500       8.90891760
I       50.46792988      37.12637500      17.73258240
I       48.65697012      34.73112500       8.85208240
I       44.85766922      34.73112500       5.10255769
I       43.83303078      37.12637500      13.98305769
I       49.05013078      37.12637500      12.65844231
I       50.07476922      34.73112500       3.77794231
I       42.06975532      34.73112500      10.91395689
I       46.62094468      37.12637500       2.03345689
I       51.83804468      37.12637500       6.84704311
I       47.28685532      34.73112500      15.72754311
I       43.43987012      34.73112500      17.78941760
I       45.25082988      37.12637500      26.66991760
I       50.46792988      37.12637500      35.49358240
I       48.65697012      34.73112500      26.61308240
I       44.85766922      34.73112500      22.86355769
I       43.83303078      37.12637500      31.74405769
I       49.05013078      37.12637500      30.41944231
I       50.07476922      34.73112500      21.53894231
I       42.06975532      34.73112500      28.67495689
I       46.62094468      37.12637500      19.79445689
I       51.83804468      37.12637500      24.60804311
I       47.28685532      34.73112500      33.48854311
I       43.43987012      34.73112500      35.55041760
I       45.25082988      37.12637500      44.43091760
I       50.46792988      37.12637500      53.25458240
I       48.65697012      34.73112500      44.37408240
I       44.85766922      34.73112500      40.62455769
I       43.83303078      37.12637500      49.50505769
I       49.05013078      37.12637500      48.18044231
I       50.07476922      34.73112500      39.29994231
I       42.06975532      34.73112500      46.43595689
I       46.62094468      37.12637500      37.55545689
I       51.83804468      37.12637500      42.36904311
I       47.28685532      34.73112500      51.24954311
I       43.43987012      34.73112500      53.31141760
I       45.25082988      37.12637500      62.19191760
I       50.46792988      37.12637500      71.01558240
I       48.65697012      34.73112500      62.13508240
I       44.85766922      34.73112500      58.38555769
I       43.83303078      37.12637500      67.26605769
I       49.05013078      37.12637500      65.94144231
I       50.07476922      34.73112500      57.06094231
I       42.06975532      34.73112500      64.19695689
I       46.62094468      37.12637500      55.31645689
I       51.83804468      37.12637500      60.13004311
I       47.28685532      34.73112500      69.01054311
I       43.43987012      39.52162500       0.02841760
I       45.25082988      41.91687500       8.90891760
I       50.46792988      41.91687500      17.73258240
I       48.65697012      39.52162500       8.85208240
I       44.85766922      39.52162500       5.10255769
I       43.83303078      41.91687500      13.98305769
I       49.05013078      41.91687500      12.65844231
I       50.07476922      39.52162500       3.77794231
I       42.06975532      39.52162500      10.91395689
I       46.62094468      41.91687500       2.03345689
I       51.83804468      41.91687500       6.84704311
I       47.28685532      39.52162500      15.72754311
I       43.43987012      39.52162500      17.78941760
I       45.25082988      41.91687500      26.66991760
I       50.46792988      41.91687500      35.49358240
I       48.65697012      39.52162500      26.61308240
I       44.85766922      39.52162500      22.86355769
I       43.83303078      41.91687500      31.74405769
I       49.05013078      41.91687500      30.41944231
I       50.07476922      39.52162500      21.53894231
I       42.06975532      39.52162500      28.67495689
I       46.62094468      41.91687500      19.79445689
I       51.83804468      41.91687500      24.60804311
I       47.28685532      39.52162500      33.48854311
I       43.43987012      39.52162500      35.55041760
I       45.25082988      41.91687500      44.43091760
I       50.46792988      41.91687500      53.25458240
I       48.65697012      39.52162500      44.37408240
I       44.85766922      39.52162500      40.62455769
I       43.83303078      41.91687500      49.50505769
I       49.05013078      41.91687500      48.18044231
I       50.07476922      39.52162500      39.29994231
I       42.06975532      39.52162500      46.43595689
I       46.62094468      41.91687500      37.55545689
I       51.83804468      41.91687500      42.36904311
I       47.28685532      39.52162500      51.24954311
I       43.43987012      39.52162500      53.31141760
I       45.25082988      41.91687500      62.19191760
I       50.46792988      41.91687500      71.01558240
I       48.65697012      39.52162500      62.13508240
I       44.85766922      39.52162500      58.38555769
I       43.83303078      41.91687500      67.26605769
I       49.05013078      41.91687500      65.94144231
I       50.07476922      39.52162500      57.06094231
I       42.06975532      39.52162500      64.19695689
I       46.62094468      41.91687500      55.31645689
I       51.83804468      41.91687500      60.13004311
I       47.28685532      39.52162500      69.01054311
I       43.43987012      44.31212500       0.02841760
I       45.25082988      46.70737500       8.90891760
I       50.46792988      46.70737500      17.73258240
I       48.65697012      44.31212500       8.85208240
I       44.85766922      44.31212500       5.10255769
I       43.83303078      46.70737500      13.98305769
I       49.05013078      46.70737500      12.65844231
I       50.07476922      44.31212500       3.77794231
I       42.06975532      44.31212500      10.91395689
I       46.62094468      46.70737500       2.03345689
I       51.83804468      46.70737500       6.84704311
I       47.28685532      44.31212500      15.72754311
I       43.43987012      44.31212500      17.78941760
I       45.25082988      46.70737500      26.66991760
I       50.46792988      46.70737500      35.49358240
I       48.65697012      44.31212500      26.61308240
I       44.85766922      44.31212500      22.86355769
I       43.83303078      46.70737500      31.74405769
I       49.05013078      46.70737500      30.41944231
I       50.07476922      44.31212500      21.53894231
I       42.06975532      44.31212500      28.67495689
I       46.62094468      46.70737500      19.79445689
I       51.83804468      46.70737500      24.60804311
I       47.28685532      44.31212500      33.48854311
I       43.43987012      44.31212500      35.55041760
I       45.25082988      46.70737500      44.43091760
I       50.46792988      46.70737500      53.25458240
I       48.65697012      44.31212500      44.37408240
I       44.85766922      44.31212500      40.62455769
I       43.83303078      46.70737500      49.50505769
I       49.05013078      46.70737500      48.18044231
I       50.07476922      44.31212500      39.29994231
I       42.06975532      44.31212500      46.43595689
I       46.62094468      46.70737500      37.55545689
I       51.83804468      46.70737500      42.36904311
I       47.28685532      44.31212500      51.24954311
I       43.43987012      44.31212500      53.31141760
I       45.25082988      46.70737500      62.19191760
I       50.46792988      46.70737500      71.01558240
I       48.65697012      44.31212500      62.13508240
I       44.85766922      44.31212500      58.38555769
I       43.83303078      46.70737500      67.26605769
I       49.05013078      46.70737500      65.94144231
I       50.07476922      44.31212500      57.06094231
I       42.06975532      44.31212500      64.19695689
I       46.62094468      46.70737500      55.31645689
I       51.83804468      46.70737500      60.13004311
I       47.28685532      44.31212500      69.01054311
I       43.43987012      49.10262500       0.02841760
I       45.25082988      51.49787500       8.90891760
I       50.46792988      51.49787500      17.73258240
I       48.65697012      49.10262500       8.85208240
I       44.85766922      49.10262500       5.10255769
I       43.83303078      51.49787500      13.98305769
I       49.05013078      51.49787500      12.65844231
I       50.07476922      49.10262500       3.77794231
I       42.06975532      49.10262500      10.91395689
I       46.62094468      51.49787500       2.03345689
I       51.83804468      51.49787500       6.84704311
I       47.28685532      49.10262500      15.72754311
I       43.43987012      49.10262500      17.78941760
I       45.25082988      51.49787500      26.66991760
I       50.46792988      51.49787500      35.49358240
I       48.65697012      49.10262500      26.61308240
I       44.85766922      49.10262500      22.86355769
I       43.83303078      51.49787500      31.74405769
I       49.05013078      51.49787500      30.41944231
I       50.07476922      49.10262500      21.53894231
I       42.06975532      49.10262500      28.67495689
I       46.62094468      51.49787500      19.79445689
I       51.83804468      51.49787500      24.60804311
I       47.28685532      49.10262500      33.48854311
I       43.43987012      49.10262500      35.55041760
I       45.25082988      51.49787500      44.43091760
I       50.46792988      51.49787500      53.25458240
I       48.65697012      49.10262500      44.37408240
I       44.85766922      49.10262500      40.62455769
I       43.83303078      51.49787500      49.50505769
I       49.05013078      51.49787500      48.18044231
I       50.07476922      49.10262500      39.29994231
I       42.06975532      49.10262500      46.43595689
I       46.62094468      51.49787500      37.55545689
I       51.83804468      51.49787500      42.36904311
I       47.28685532      49.10262500      51.24954311
I       43.43987012      49.10262500      53.31141760
I       45.25082988      51.49787500      62.19191760
I       50.46792988      51.49787500      71.01558240
I       48.65697012      49.10262500      62.13508240
I       44.85766922      49.10262500      58.38555769
I       43.83303078      51.49787500      67.26605769
I       49.05013078      51.49787500      65.94144231
I       50.07476922      49.10262500      57.06094231
I       42.06975532      49.10262500      64.19695689
I       46.62094468      51.49787500      55.31645689
I       51.83804468      51.49787500      60.13004311
I       47.28685532      49.10262500      69.01054311
I       43.43987012      53.89312500       0.02841760
I       45.25082988      56.28837500       8.90891760
I       50.46792988      56.28837500      17.73258240
I       48.65697012      53.89312500       8.85208240
I       44.85766922      53.89312500       5.10255769
I       43.83303078      56.28837500      13.98305769
I       49.05013078      56.28837500      12.65844231
I       50.07476922      53.89312500       3.77794231
I       42.06975532      53.89312500      10.91395689
I       46.62094468      56.28837500       2.03345689
I       51.83804468      56.28837500       6.84704311
I       47.28685532      53.89312500      15.72754311
I       43.43987012      53.89312500      17.78941760
I       45.25082988      56.28837500      26.66991760
I       50.46792988      56.28837500      35.49358240
I       48.65697012      53.89312500      26.61308240
I       44.85766922      53.89312500      22.86355769
I       43.83303078      56.28837500      31.74405769
I       49.05013078      56.28837500      30.41944231
I       50.07476922      53.89312500      21.53894231
I       42.06975532      53.89312500      28.67495689
I       46.62094468      56.28837500      19.79445689
I       51.83804468      56.28837500      24.60804311
I       47.28685532      53.89312500      33.48854311
I       43.43987012      53.89312500      35.55041760
I       45.25082988      56.28837500      44.43091760
I       50.46792988      56.28837500      53.25458240
I       48.65697012      53.89312500      44.37408240
I       44.85766922      53.89312500      40.62455769
I       43.83303078      56.28837500      49.50505769
I       49.05013078      56.28837500      48.18044231
I       50.07476922      53.89312500      39.29994231
I       42.06975532      53.89312500      46.43595689
I       46.62094468      56.28837500      37.55545689
I       51.83804468      56.28837500      42.36904311
I       47.28685532      53.89312500      51.24954311
I       43.43987012      53.89312500      53.31141760
I       45.25082988      56.28837500      62.19191760
I       50.46792988      56.28837500      71.01558240
I       48.65697012      53.89312500      62.13508240
I       44.85766922      53.89312500      58.38555769
I       43.83303078      56.28837500      67.26605769
I       49.05013078      56.28837500      65.94144231
I       50.07476922      53.89312500      57.06094231
I       42.06975532      53.89312500      64.19695689
I       46.62094468      56.28837500      55.31645689
I       51.83804468      56.28837500      60.13004311
I       47.28685532      53.89312500      69.01054311
I       43.43987012      58.68362500       0.02841760
I       45.25082988      61.07887500       8.90891760
I       50.46792988      61.07887500      17.73258240
I       48.65697012      58.68362500       8.85208240
I       44.85766922      58.68362500       5.10255769
I       43.83303078      61.07887500      13.98305769
I       49.05013078      61.07887500      12.65844231
I       50.07476922      58.68362500       3.77794231
I       42.06975532      58.68362500      10.91395689
I       46.62094468      61.07887500       2.03345689
I       51.83804468      61.07887500       6.84704311
I       47.28685532      58.68362500      15.72754311
I       43.43987012      58.68362500      17.78941760
I       45.25082988      61.07887500      26.66991760
I       50.46792988      61.07887500      35.49358240
I       48.65697012      58.68362500      26.61308240
I       44.85766922      58.68362500      22.86355769
I       43.83303078      61.07887500      31.74405769
I       49.05013078      61.07887500      30.41944231
I       50.07476922      58.68362500      21.53894231
I       42.06975532      58.68362500      28.67495689
I       46.62094468      61.07887500      19.79445689
I       51.83804468      61.07887500      24.60804311
I       47.28685532      58.68362500      33.48854311
I       43.43987012      58.68362500      35.55041760
I       45.25082988      61.07887500      44.43091760
I       50.46792988      61.07887500      53.25458240
I       48.65697012      58.68362500      44.37408240
I       44.85766922      58.68362500      40.62455769
I       43.83303078      61.07887500      49.50505769
I       49.05013078      61.07887500      48.18044231
I       50.07476922      58.68362500      39.29994231
I       42.06975532      58.68362500      46.43595689
I       46.62094468      61.07887500      37.55545689
I       51.83804468      61.07887500      42.36904311
I       47.28685532      58.68362500      51.24954311
I       43.43987012      58.68362500      53.31141760
I       45.25082988      61.07887500      62.19191760
I       50.46792988      61.07887500      71.01558240
I       48.65697012      58.68362500      62.13508240
I       44.85766922      58.68362500      58.38555769
I       43.83303078      61.07887500      67.26605769
I       49.05013078      61.07887500      65.94144231
I       50.07476922      58.68362500      57.06094231
I       42.06975532      58.68362500      64.19695689
I       46.62094468      61.07887500      55.31645689
I       51.83804468      61.07887500      60.13004311
I       47.28685532      58.68362500      69.01054311
I       43.43987012      63.47412500       0.02841760
I       45.25082988      65.86937500       8.90891760
I       50.46792988      65.86937500      17.73258240
I       48.65697012      63.47412500       8.85208240
I       44.85766922      63.47412500       5.10255769
I       43.83303078      65.86937500      13.98305769
I       49.05013078      65.86937500      12.65844231
I       50.07476922      63.47412500       3.77794231
I       42.06975532      63.47412500      10.91395689
I       46.62094468      65.86937500       2.03345689
I       51.83804468      65.86937500       6.84704311
I       47.28685532      63.47412500      15.72754311
I       43.43987012      63.47412500      17.78941760
I       45.25082988      65.86937500      26.66991760
I       50.46792988      65.86937500      35.49358240
I       48.65697012      63.47412500      26.61308240
I       44.85766922      63.47412500      22.86355769
I       43.83303078      65.86937500      31.74405769
I       49.05013078      65.86937500      30.41944231
I       50.07476922      63.47412500      21.53894231
I       42.06975532      63.47412500      28.67495689
I       46.62094468      65.86937500      19.79445689
I       51.83804468      65.86937500      24.60804311
I       47.28685532      63.47412500      33.48854311
I       43.43987012      63.47412500      35.55041760
I       45.25082988      65.86937500      44.43091760
I       50.46792988      65.86937500      53.25458240
I       48.65697012      63.47412500      44.37408240
I       44.85766922      63.47412500      40.62455769
I       43.83303078      65.86937500      49.50505769
I       49.05013078      65.86937500      48.18044231
I       50.07476922      63.47412500      39.29994231
I       42.06975532      63.47412500      46.43595689
I       46.62094468      65.86937500      37.55545689
I       51.83804468      65.86937500      42.36904311
I       47.28685532      63.47412500      51.24954311
I       43.43987012      63.47412500      53.31141760
I       45.25082988      65.86937500      62.19191760
I       50.46792988      65.86937500      71.01558240
I       48.65697012      63.47412500      62.13508240
I       44.85766922      63.47412500      58.38555769
I       43.83303078      65.86937500      67.26605769
I       49.05013078      65.86937500      65.94144231
I       50.07476922      63.47412500      57.06094231
I       42.06975532      63.47412500      64.19695689
I       46.62094468      65.86937500      55.31645689
I       51.83804468      65.86937500      60.13004311
I       47.28685532      63.47412500      69.01054311
I       43.43987012      68.26462500       0.02841760
I       45.25082988      70.65987500       8.90891760
I       50.46792988      70.65987500      17.73258240
I       48.65697012      68.26462500       8.85208240
I       44.85766922      68.26462500       5.10255769
I       43.83303078      70.65987500      13.98305769
I       49.05013078      70.65987500      12.65844231
I       50.07476922      68.26462500       3.77794231
I       42.06975532      68.26462500      10.91395689
I       46.62094468      70.65987500       2.03345689
I       51.83804468      70.65987500       6.84704311
I       47.28685532      68.26462500      15.72754311
I       43.43987012      68.26462500      17.78941760
I       45.25082988      70.65987500      26.66991760
I       50.46792988      70.65987500      35.49358240
I       48.65697012      68.26462500      26.61308240
I       44.85766922      68.26462500      22.86355769
I       43.83303078      70.65987500      31.74405769
I       49.05013078      70.65987500      30.41944231
I       50.07476922      68.26462500      21.53894231
I       42.06975532      68.26462500      28.67495689
I       46.62094468      70.65987500      19.79445689
I       51.83804468      70.65987500      24.60804311
I       47.28685532      68.26462500      33.48854311
I       43.43987012      68.26462500      35.55041760
I       45.25082988      70.65987500      44.43091760
I       50.46792988      70.65987500      53.25458240
I       48.65697012      68.26462500      44.37408240
I       44.85766922      68.26462500      40.62455769
I       43.83303078      70.65987500      49.50505769
I       49.05013078      70.65987500      48.18044231
I       50.07476922      68.26462500      39.29994231
I       42.06975532      68.26462500      46.43595689
I       46.62094468      70.65987500      37.55545689
I       51.83804468      70.65987500      42.36904311
I       47.28685532      68.26462500      51.24954311
I       43.43987012      68.26462500      53.31141760
I       45.25082988      70.65987500      62.19191760
I       50.46792988      70.65987500      71.01558240
I       48.65697012      68.26462500      62.13508240
I       44.85766922      68.26462500      58.38555769
I       43.83303078      70.65987500      67.26605769
I       49.05013078      70.65987500      65.94144231
I       50.07476922      68.26462500      57.06094231
I       42.06975532      68.26462500      64.19695689
I       46.62094468      70.65987500      55.31645689
I       51.83804468      70.65987500      60.13004311
I       47.28685532      68.26462500      69.01054311
I       43.43987012      73.05512500       0.02841760
I       45.25082988      75.45037500       8.90891760
I       50.46792988      75.45037500      17.73258240
I       48.65697012      73.05512500       8.85208240
I       44.85766922      73.05512500       5.10255769
I       43.83303078      75.45037500      13.98305769
I       49.05013078      75.45037500      12.65844231
I       50.07476922      73.05512500       3.77794231
I       42.06975532      73.05512500      10.91395689
I       46.62094468      75.45037500       2.03345689
I       51.83804468      75.45037500       6.84704311
I       47.28685532      73.05512500      15.72754311
I       43.43987012      73.05512500      17.78941760
I       45.25082988      75.45037500      26.66991760
I       50.46792988      75.45037500      35.49358240
I       48.65697012      73.05512500      26.61308240
I       44.85766922      73.05512500      22.86355769
I       43.83303078      75.45037500      31.74405769
I       49.05013078      75.45037500      30.41944231
I       50.07476922      73.05512500      21.53894231
I       42.06975532      73.05512500      28.67495689
I       46.62094468      75.45037500      19.79445689
I       51.83804468      75.45037500      24.60804311
I       47.28685532      73.05512500      33.48854311
I       43.43987012      73.05512500      35.55041760
I       45.25082988      75.45037500      44.43091760
I       50.46792988      75.45037500      53.25458240
I       48.65697012      73.05512500      44.37408240
I       44.85766922      73.05512500      40.62455769
I       43.83303078      75.45037500      49.50505769
I       49.05013078      75.45037500      48.18044231
I       50.07476922      73.05512500      39.29994231
I       42.06975532      73.05512500      46.43595689
I       46.62094468      75.45037500      37.55545689
I       51.83804468      75.45037500      42.36904311
I       47.28685532      73.05512500      51.24954311
I       43.43987012      73.05512500      53.31141760
I       45.25082988      75.45037500      62.19191760
I       50.46792988      75.45037500      71.01558240
I       48.65697012      73.05512500      62.13508240
I       44.85766922      73.05512500      58.38555769
I       43.83303078      75.45037500      67.26605769
I       49.05013078      75.45037500      65.94144231
I       50.07476922      73.05512500      57.06094231
I       42.06975532      73.05512500      64.19695689
I       46.62094468      75.45037500      55.31645689
I       51.83804468      75.45037500      60.13004311
I       47.28685532      73.05512500      69.01054311
I       43.43987012      77.84562500       0.02841760
I       45.25082988      80.24087500       8.90891760
I       50.46792988      80.24087500      17.73258240
I       48.65697012      77.84562500       8.85208240
I       44.85766922      77.84562500       5.10255769
I       43.83303078      80.24087500      13.98305769
I       49.05013078      80.24087500      12.65844231
I       50.07476922      77.84562500       3.77794231
I       42.06975532      77.84562500      10.91395689
I       46.62094468      80.24087500       2.03345689
I       51.83804468      80.24087500       6.84704311
I       47.28685532      77.84562500      15.72754311
I       43.43987012      77.84562500      17.78941760
I       45.25082988      80.24087500      26.66991760
I       50.46792988      80.24087500      35.49358240
I       48.65697012      77.84562500      26.61308240
I       44.85766922      77.84562500      22.86355769
I       43.83303078      80.24087500      31.74405769
I       49.05013078      80.24087500      30.41944231
I       50.07476922      77.84562500      21.53894231
I       42.06975532      77.84562500      28.67495689
I       46.62094468      80.24087500      19.79445689
I       51.83804468      80.24087500      24.60804311
I       47.28685532      77.84562500      33.48854311
I       43.43987012      77.84562500      35.55041760
I       45.25082988      80.24087500      44.43091760
I       50.46792988      80.24087500      53.25458240
I       48.65697012      77.84562500      44.37408240
I       44.85766922      77.84562500      40.62455769
I       43.83303078      80.24087500      49.50505769
I       49.05013078      80.24087500      48.18044231
I       50.07476922      77.84562500      39.29994231
I       42.06975532      77.84562500      46.43595689
I       46.62094468      80.24087500      37.55545689
I       51.83804468      80.24087500      42.36904311
I       47.28685532      77.84562500      51.24954311
I       43.43987012      77.84562500      53.31141760
I       45.25082988      80.24087500      62.19191760
I       50.46792988      80.24087500      71.01558240
I       48.65697012      77.84562500      62.13508240
I       44.85766922      77.84562500      58.38555769
I       43.83303078      80.24087500      67.26605769
I       49.05013078      80.24087500      65.94144231
I       50.07476922      77.84562500      57.06094231
I       42.06975532      77.84562500      64.19695689
I       46.62094468      80.24087500      55.31645689
I       51.83804468      80.24087500      60.13004311
I       47.28685532      77.84562500      69.01054311
I       43.43987012      82.63612500       0.02841760
I       45.25082988      85.03137500       8.90891760
I       50.46792988      85.03137500      17.73258240
I       48.65697012      82.63612500       8.85208240
I       44.85766922      82.63612500       5.10255769
I       43.83303078      85.03137500      13.98305769
I       49.05013078      85.03137500      12.65844231
I       50.07476922      82.63612500       3.77794231
I       42.06975532      82.63612500      10.91395689
I       46.62094468      85.03137500       2.03345689
I       51.83804468      85.03137500       6.84704311
I       47.28685532      82.63612500      15.72754311
I       43.43987012      82.63612500      17.78941760
I       45.25082988      85.03137500      26.66991760
I       50.46792988      85.03137500      35.49358240
I       48.65697012      82.63612500      26.61308240
I       44.85766922      82.63612500      22.86355769
I       43.83303078      85.03137500      31.74405769
I       49.05013078      85.03137500      30.41944231
I       50.07476922      82.63612500      21.53894231
I       42.06975532      82.63612500      28.67495689
I       46.62094468      85.03137500      19.79445689
I       51.83804468      85.03137500      24.60804311
I       47.28685532      82.63612500      33.48854311
I       43.43987012      82.63612500      35.55041760
I       45.25082988      85.03137500      44.43091760
I       50.46792988      85.03137500      53.25458240
I       48.65697012      82.63612500      44.37408240
I       44.85766922      82.63612500      40.62455769
I       43.83303078      85.03137500      49.50505769
I       49.05013078      85.03137500      48.18044231
I       50.07476922      82.63612500      39.29994231
I       42.06975532      82.63612500      46.43595689
I       46.62094468      85.03137500      37.55545689
I       51.83804468      85.03137500      42.36904311
I       47.28685532      82.63612500      51.24954311
I       43.43987012      82.63612500      53.31141760
I       45.25082988      85.03137500      62.19191760
I       50.46792988      85.03137500      71.01558240
I       48.65697012      82.63612500      62.13508240
I       44.85766922      82.63612500      58.38555769
I       43.83303078      85.03137500      67.26605769
I       49.05013078      85.03137500      65.94144231
I       50.07476922      82.63612500      57.06094231
I       42.06975532      82.63612500      64.19695689
I       46.62094468      85.03137500      55.31645689
I       51.83804468      85.03137500      60.13004311
I       47.28685532      82.63612500      69.01054311
I       53.87407012       1.19762500       0.02841760
I       55.68502988       3.59287500       8.90891760
I       60.90212988       3.59287500      17.73258240
I       59.09117012       1.19762500       8.85208240
I       55.29186922       1.19762500       5.10255769
I       54.26723078       3.59287500      13.98305769
I       59.48433078       3.59287500      12.65844231
I       60.50896922       1.19762500       3.77794231
I       52.50395532       1.19762500      10.91395689
I       57.05514468       3.59287500       2.03345689
I       62.27224468       3.59287500       6.84704311
I       57.72105532       1.19762500      15.72754311
I       53.87407012       1.19762500      17.78941760
I       55.68502988       3.59287500      26.66991760
I       60.90212988       3.59287500      35.49358240
I       59.09117012       1.19762500      26.61308240
I       55.29186922       1.19762500      22.86355769
I       54.26723078       3.59287500      31.74405769
I       59.48433078       3.59287500      30.41944231
I       60.50896922       1.19762500      21.53894231
I       52.50395532       1.19762500      28.67495689
I       57.05514468       3.59287500      19.79445689
I       62.27224468       3.59287500      24.60804311
I       57.72105532       1.19762500      33.48854311
I       53.87407012       1.19762500      35.55041760
I       55.68502988       3.59287500      44.43091760
I       60.90212988       3.59287500      53.25458240
I       59.09117012       1.19762500      44.37408240
I       55.29186922       1.19762500      40.62455769
I       54.26723078       3.59287500      49.50505769
I       59.48433078       3.59287500      48.18044231
I       60.50896922       1.19762500      39.29994231
I       52.50395532       1.19762500      46.43595689
I       57.05514468       3.59287500      37.55545689
I       62.27224468       3.59287500      42.36904311
I       57.72105532       1.19762500      51.24954311
I       53.87407012       1.19762500      53.31141760
I       55.68502988       3.59287500      62.19191760
I       60.90212988       3.59287500      71.01558240
I       59.09117012       1.19762500      62.13508240
I       55.29186922       1.19762500      58.38555769
I       54.26723078       3.59287500      67.26605769
I       59.48433078       3.59287500      65.94144231
I       60.50896922       1.19762500      57.06094231
I       52.50395532       1.19762500      64.19695689
I       57.05514468       3.59287500      55.31645689
I       62.27224468       3.59287500      60.13004311
I       57.72105532       1.19762500      69.01054311
I       53.87407012       5.98812500       0.02841760
I       55.68502988       8.38337500       8.90891760
I       60.90212988       8.38337500      17.73258240
I       59.09117012       5.98812500       8.85208240
I       55.29186922       5.98812500       5.10255769
I       54.26723078       8.38337500      13.98305769
I       59.48433078       8.38337500      12.65844231
I       60.50896922       5.98812500       3.77794231
I       52.50395532       5.98812500      10.91395689
I       57.05514468       8.38337500       2.03345689
I       62.27224468       8.38337500       6.84704311
I       57.72105532       5.98812500      15.72754311
I       53.87407012       5.98812500      17.78941760
I       55.68502988       8.38337500      26.66991760
I       60.90212988       8.38337500      35.49358240
I       59.09117012       5.98812500      26.61308240
I       55.29186922       5.98812500      22.86355769
I       54.26723078       8.38337500      31.74405769
I       59.48433078       8.38337500      30.41944231
I       60.50896922       5.98812500      21.53894231
I       52.50395532       5.98812500      28.67495689
I       57.05514468       8.38337500      19.79445689
I       62.27224468       8.38337500      24.60804311
I       57.72105532       5.98812500      33.48854311
I       53.87407012       5.98812500      35.55041760
I       55.68502988       8.38337500      44.43091760
I       60.90212988       8.38337500      53.25458240
I       59.09117012       5.98812500      44.37408240
I       55.29186922       5.98812500      40.62455769
I       54.26723078       8.38337500      49.50505769
I       59.48433078       8.38337500      48.18044231
I       60.50896922       5.98812500      39.29994231
I       52.50395532       5.98812500      46.43595689
I       57.05514468       8.38337500      37.55545689
I       62.27224468       8.38337500      42.36904311
I       57.72105532       5.98812500      51.24954311
I       53.87407012       5.98812500      53.31141760
I       55.68502988       8.38337500      62.19191760
I       60.90212988       8.38337500      71.01558240
I       59.09117012       5.98812500      62.13508240
I       55.29186922       5.98812500      58.38555769
I       54.26723078       8.38337500      67.26605769
I       59.48433078       8.38337500      65.94144231
I       60.50896922       5.98812500      57.06094231
I       52.50395532       5.98812500      64.19695689
I       57.05514468       8.38337500      55.31645689
I       62.27224468       8.38337500      60.13004311
I       57.72105532       5.98812500      69.01054311
I       53.87407012      10.77862500       0.02841760
I       55.68502988      13.17387500       8.90891760
I       60.90212988      13.17387500      17.73258240
I       59.09117012      10.77862500       8.85208240
I       55.29186922      10.77862500       5.10255769
I       54.26723078      13.17387500      13.98305769
I       59.48433078      13.17387500      12.65844231
I       60.50896922      10.77862500       3.77794231
I       52.50395532      10.77862500      10.91395689
I       57.05514468      13.17387500       2.03345689
I       62.27224468      13.17387500       6.84704311
I       57.72105532      10.77862500      15.72754311
I       53.87407012      10.77862500      17.78941760
I       55.68502988      13.17387500      26.66991760
I       60.90212988      13.17387500      35.49358240
I       59.09117012      10.77862500      26.61308240
I       55.29186922      10.77862500      22.86355769
I       54.26723078      13.17387500      31.74405769
I       59.48433078      13.17387500      30.41944231
I       60.50896922      10.77862500      21.53894231
I       52.50395532      10.77862500      28.67495689
I       57.05514468      13.17387500      19.79445689
I       62.27224468      13.17387500      24.60804311
I       57.72105532      10.77862500      33.48854311
I       53.87407012      10.77862500      35.55041760
I       55.68502988      13.17387500      44.43091760
I       60.90212988      13.17387500      53.25458240
I       59.09117012      10.77862500      44.37408240
I       55.29186922      10.77862500      40.62455769
I       54.26723078      13.17387500      49.50505769
I       59.48433078      13.17387500      48.18044231
I       60.50896922      10.77862500      39.29994231
I       52.50395532      10.77862500      46.43595689
I       57.05514468      13.17387500      37.55545689
I       62.27224468      13.17387500      42.36904311
I       57.72105532      10.77862500      51.24954311
I       53.87407012      10.77862500      53.31141760
I       55.68502988      13.17387500      62.19191760
I       60.90212988      13.17387500      71.01558240
I       59.09117012      10.77862500      62.13508240
I       55.29186922      10.77862500      58.38555769
I       54.26723078      13.17387500      67.26605769
I       59.48433078      13.17387500      65.94144231
I       60.50896922      10.77862500      57.06094231
I       52.50395532      10.77862500      64.19695689
I       57.05514468      13.17387500      55.31645689
I       62.27224468      13.17387500      60.13004311
I       57.72105532      10.77862500      69.01054311
I       53.87407012      15.56912500       0.02841760
I       55.68502988      17.96437500       8.90891760
I       60.90212988      17.96437500      17.73258240
I       59.09117012      15.56912500       8.85208240
I       55.29186922      15.56912500       5.10255769
I       54.26723078      17.96437500      13.98305769
I       59.48433078      17.96437500      12.65844231
I       60.50896922      15.56912500       3.77794231
I       52.50395532      15.56912500      10.91395689
I       57.05514468      17.96437500       2.03345689
I       62.27224468      17.96437500       6.84704311
I       57.72105532      15.56912500      15.72754311
I       53.87407012      15.56912500      17.78941760
I       55.68502988      17.96437500      26.66991760
I       60.90212988      17.96437500      35.49358240
I       59.09117012      15.56912500      26.61308240
I       55.29186922      15.56912500      22.86355769
I       54.26723078      17.96437500      31.74405769
I       59.48433078      17.96437500      30.41944231
I       60.50896922      15.56912500      21.53894231
I       52.50395532      15.56912500      28.67495689
I       57.05514468      17.96437500      19.79445689
I       62.27224468      17.96437500      24.60804311
I       57.72105532      15.56912500      33.48854311
I       53.87407012      15.56912500      35.55041760
I       55.68502988      17.96437500      44.43091760
I       60.90212988      17.96437500      53.25458240
I       59.09117012      15.56912500      44.37408240
I       55.29186922      15.56912500      40.62455769
I       54.26723078      17.96437500      49.50505769
I       59.48433078      17.96437500      48.18044231
I       60.50896922      15.56912500      39.29994231
I       52.50395532      15.56912500      46.43595689
I       57.05514468      17.96437500      37.55545689
I       62.27224468      17.96437500      42.36904311
I       57.72105532      15.56912500      51.24954311
I       53.87407012      15.56912500      53.31141760
I       55.68502988      17.96437500      62.19191760
I       60.90212988      17.96437500      71.01558240
I       59.09117012      15.56912500      62.13508240
I       55.29186922      15.56912500      58.38555769
I       54.26723078      17.96437500      67.26605769
I       59.48433078      17.96437500      65.94144231
I       60.50896922      15.56912500      57.06094231
I       52.50395532      15.56912500      64.19695689
I       57.05514468      17.96437500      55.31645689
I       62.27224468      17.96437500      60.13004311
I       57.72105532      15.56912500      69.01054311
I       53.87407012      20.35962500       0.02841760
I       55.68502988      22.75487500       8.90891760
I       60.90212988      22.75487500      17.73258240
I       59.09117012      20.35962500       8.85208240
I       55.29186922      20.35962500       5.10255769
I       54.26723078      22.75487500      13.98305769
I       59.48433078      22.75487500      12.65844231
I       60.50896922      20.35962500       3.77794231
I       52.50395532      20.35962500      10.91395689
I       57.05514468      22.75487500       2.03345689
I       62.27224468      22.75487500       6.84704311
I       57.72105532      20.35962500      15.72754311
I       53.87407012      20.35962500      17.78941760
I       55.68502988      22.75487500      26.66991760
I       60.90212988      22.75487500      35.49358240
I       59.09117012      20.35962500      26.61308240
I       55.29186922      20.35962500      22.86355769
I       54.26723078      22.75487500      31.74405769
I       59.48433078      22.75487500      30.41944231
I       60.50896922      20.35962500      21.53894231
I       52.50395532      20.35962500      28.67495689
I       57.05514468      22.75487500      19.79445689
I       62.27224468      22.75487500      24.60804311
I       57.72105532      20.35962500      33.48854311
I       53.87407012      20.35962500      35.55041760
I       55.68502988      22.75487500      44.43091760
I       60.90212988      22.75487500      53.25458240
I       59.09117012      20.35962500      44.37408240
I       55.29186922      20.35962500      40.62455769
I       54.26723078      22.75487500      49.50505769
I       59.48433078      22.75487500      48.18044231
I       60.50896922      20.35962500      39.29994231
I       52.50395532      20.35962500      46.43595689
I       57.05514468      22.75487500      37.55545689
I       62.27224468      22.75487500      42.36904311
I       57.72105532      20.35962500      51.24954311
I       53.87407012      20.35962500      53.31141760
I       55.68502988      22.75487500      62.19191760
I       60.90212988      22.75487500      71.01558240
I       59.09117012      20.35962500      62.13508240
I       55.29186922      20.35962500      58.38555769
I       54.26723078      22.75487500      67.26605769
I       59.48433078      22.75487500      65.94144231
I       60.50896922      20.35962500      57.06094231
I       52.50395532      20.35962500      64.19695689
I       57.05514468      22.75487500      55.31645689
I       62.27224468      22.75487500      60.13004311
I       57.72105532      20.35962500      69.01054311
I       53.87407012      25.15012500       0.02841760
I       55.68502988      27.54537500       8.90891760
I       60.90212988      27.54537500      17.73258240
I       59.09117012      25.15012500       8.85208240
I       55.29186922      25.15012500       5.10255769
I       54.26723078      27.54537500      13.98305769
I       59.48433078      27.54537500      12.65844231
I       60.50896922      25.15012500       3.77794231
I       52.50395532      25.15012500      10.91395689
I       57.05514468      27.54537500       2.03345689
I       62.27224468      27.54537500       6.84704311
I       57.72105532      25.15012500      15.72754311
I       53.87407012      25.15012500      17.78941760
I       55.68502988      27.54537500      26.66991760
I       60.90212988      27.54537500      35.49358240
I       59.09117012      25.15012500      26.61308240
I       55.29186922      25.15012500      22.86355769
I       54.26723078      27.54537500      31.74405769
I       59.48433078      27.54537500      30.41944231
I       60.50896922      25.15012500      21.53894231
I       52.50395532      25.15012500      28.67495689
I       57.05514468      27.54537500      19.79445689
I       62.27224468      27.54537500      24.60804311
I       57.72105532      25.15012500      33.48854311
I       53.87407012      25.15012500      35.55041760
I       55.68502988      27.54537500      44.43091760
I       60.90212988      27.54537500      53.25458240
I       59.09117012      25.15012500      44.37408240
I       55.29186922      25.15012500      40.62455769
I       54.26723078      27.54537500      49.50505769
I       59.48433078      27.54537500      48.18044231
I       60.50896922      25.15012500      39.29994231
I       52.50395532      25.15012500      46.43595689
I       57.05514468      27.54537500      37.55545689
I       62.27224468      27.54537500      42.36904311
I       57.72105532      25.15012500      51.24954311
I       53.87407012      25.15012500      53.31141760
I       55.68502988      27.54537500      62.19191760
I       60.90212988      27.54537500      71.01558240
I       59.09117012      25.15012500      62.13508240
I       55.29186922      25.15012500      58.38555769
I       54.26723078      27.54537500      67.26605769
I       59.48433078      27.54537500      65.94144231
I       60.50896922      25.15012500      57.06094231
I       52.50395532      25.15012500      64.19695689
I       57.05514468      27.54537500      55.31645689
I       62.27224468      27.54537500      60.13004311
I       57.72105532      25.15012500      69.01054311
I       53.87407012      29.94062500       0.02841760
I       55.68502988      32.33587500       8.90891760
I       60.90212988      32.33587500      17.73258240
I       59.09117012      29.94062500       8.85208240
I       55.29186922      29.94062500       5.10255769
I       54.26723078      32.33587500      13.98305769
I       59.48433078      32.33587500      12.65844231
I       60.50896922      29.94062500       3.77794231
I       52.50395532      29.94062500      10.91395689
I       57.05514468      32.33587500       2.03345689
I       62.27224468      32.33587500       6.84704311
I       57.72105532      29.94062500      15.72754311
I       53.87407012      29.94062500      17.78941760
I       55.68502988      32.33587500      26.66991760
I       60.90212988      32.33587500      35.49358240
I       59.09117012      29.94062500      26.61308240
I       55.29186922      29.94062500      22.86355769
I       54.26723078      32.33587500      31.74405769
I       59.48433078      32.33587500      30.41944231
I       60.50896922      29.94062500      21.53894231
I       52.50395532      29.94062500      28.67495689
I       57.05514468      32.33587500      19.79445689
I       62.27224468      32.33587500      24.60804311
I       57.72105532      29.94062500      33.48854311
I       53.87407012      29.94062500      35.55041760
I       55.68502988      32.33587500      44.43091760
I       60.90212988      32.33587500      53.25458240
I       59.09117012      29.94062500      44.37408240
I       55.29186922      29.94062500      40.62455769
I       54.26723078      32.33587500      49.50505769
I       59.48433078      32.33587500      48.18044231
I       60.50896922      29.94062500      39.29994231
I       52.50395532      29.94062500      46.43595689
I       57.05514468      32.33587500      37.55545689
I       62.27224468      32.33587500      42.36904311
I       57.72105532      29.94062500      51.24954311
I       53.87407012      29.94062500      53.31141760
I       55.68502988      32.33587500      62.19191760
I       60.90212988      32.33587500      71.01558240
I       59.09117012      29.94062500      62.13508240
I       55.29186922      29.94062500      58.38555769
I       54.26723078      32.33587500      67.26605769
I       59.48433078      32.33587500      65.94144231
I       60.50896922      29.94062500      57.06094231
I       52.50395532      29.94062500      64.19695689
I       57.05514468      32.33587500      55.31645689
I       62.27224468      32.33587500      60.13004311
I       57.72105532      29.94062500      69.01054311
I       53.87407012      34.73112500       0.02841760
I       55.68502988      37.12637500       8.90891760
I       60.90212988      37.12637500      17.73258240
I       59.09117012      34.73112500       8.85208240
I       55.29186922      34.73112500       5.10255769
I       54.26723078      37.12637500      13.98305769
I       59.48433078      37.12637500      12.65844231
I       60.50896922      34.73112500       3.77794231
I       52.50395532      34.73112500      10.91395689
I       57.05514468      37.12637500       2.03345689
I       62.27224468      37.12637500       6.84704311
I       57.72105532      34.73112500      15.72754311
I       53.87407012      34.73112500      17.78941760
I       55.68502988      37.12637500      26.66991760
I       60.90212988      37.12637500      35.49358240
I       59.09117012      34.73112500      26.61308240
I       55.29186922      34.73112500      22.86355769
I       54.26723078      37.12637500      31.74405769
I       59.48433078      37.12637500      30.41944231
I       60.50896922      34.73112500      21.53894231
I       52.50395532      34.73112500      28.67495689
I       57.05514468      37.12637500      19.79445689
I       62.27224468      37.12637500      24.60804311
I       57.72105532      34.73112500      33.48854311
I       53.87407012      34.73112500      35.55041760
I       55.68502988      37.12637500      44.43091760
I       60.90212988      37.12637500      53.25458240
I       59.09117012      34.73112500      44.37408240
I       55.29186922      34.73112500      40.62455769
I       54.26723078      37.12637500      49.50505769
I       59.48433078      37.12637500      48.18044231
I       60.50896922      34.73112500      39.29994231
I       52.50395532      34.73112500      46.43595689
I       57.05514468      37.12637500      37.55545689
I       62.27224468      37.12637500      42.36904311
I       57.72105532      34.73112500      51.24954311
I       53.87407012      34.73112500      53.31141760
I       55.68502988      37.12637500      62.19191760
I       60.90212988      37.12637500      71.01558240
I       59.09117012      34.73112500      62.13508240
I       55.29186922      34.73112500      58.38555769
I       54.26723078      37.12637500      67.26605769
I       59.48433078      37.12637500      65.94144231
I       60.50896922      34.73112500      57.06094231
I       52.50395532      34.73112500      64.19695689
I       57.05514468      37.12637500      55.31645689
I       62.27224468      37.12637500      60.13004311
I       57.72105532      34.73112500      69.01054311
I       53.87407012      39.52162500       0.02841760
I       55.68502988      41.91687500       8.90891760
I       60.90212988      41.91687500      17.73258240
I       59.09117012      39.52162500       8.85208240
I       55.29186922      39.52162500       5.10255769
I       54.26723078      41.91687500      13.98305769
I       59.48433078      41.91687500      12.65844231
I       60.50896922      39.52162500       3.77794231
I       52.50395532      39.52162500      10.91395689
I       57.05514468      41.91687500       2.03345689
I       62.27224468      41.91687500       6.84704311
I       57.72105532      39.52162500      15.72754311
I       53.87407012      39.52162500      17.78941760
I       55.68502988      41.91687500      26.66991760
I       60.90212988      41.91687500      35.49358240
I       59.09117012      39.52162500      26.61308240
I       55.29186922      39.52162500      22.86355769
I       54.26723078      41.91687500      31.74405769
I       59.48433078      41.91687500      30.41944231
I       60.50896922      39.52162500      21.53894231
I       52.50395532      39.52162500      28.67495689
I       57.05514468      41.91687500      19.79445689
I       62.27224468      41.91687500      24.60804311
I       57.72105532      39.52162500      33.48854311
I       53.87407012      39.52162500      35.55041760
I       55.68502988      41.91687500      44.43091760
I       60.90212988      41.91687500      53.25458240
I       59.09117012      39.52162500      44.37408240
I       55.29186922      39.52162500      40.62455769
I       54.26723078      41.91687500      49.50505769
I       59.48433078      41.91687500      48.18044231
I       60.50896922      39.52162500      39.29994231
I       52.50395532      39.52162500      46.43595689
I       57.05514468      41.91687500      37.55545689
I       62.27224468      41.91687500      42.36904311
I       57.72105532      39.52162500      51.24954311
I       53.87407012      39.52162500      53.31141760
I       55.68502988      41.91687500      62.19191760
I       60.90212988      41.91687500      71.01558240
I       59.09117012      39.52162500      62.13508240
I       55.29186922      39.52162500      58.38555769
I       54.26723078      41.91687500      67.26605769
I       59.48433078      41.91687500      65.94144231
I       60.50896922      39.52162500      57.06094231
I       52.50395532      39.52162500      64.19695689
I       57.05514468      41.91687500      55.31645689
I       62.27224468      41.91687500      60.13004311
I       57.72105532      39.52162500      69.01054311
I       53.87407012      44.31212500       0.02841760
I       55.68502988      46.70737500       8.90891760
I       60.90212988      46.70737500      17.73258240
I       59.09117012      44.31212500       8.85208240
I       55.29186922      44.31212500       5.10255769
I       54.26723078      46.70737500      13.98305769
I       59.48433078      46.70737500      12.65844231
I       60.50896922      44.31212500       3.77794231
I       52.50395532      44.31212500      10.91395689
I       57.05514468      46.70737500       2.03345689
I       62.27224468      46.70737500       6.84704311
I       57.72105532      44.31212500      15.72754311
I       53.87407012      44.31212500      17.78941760
I       55.68502988      46.70737500      26.66991760
I       60.90212988      46.70737500      35.49358240
I       59.09117012      44.31212500      26.61308240
I       55.29186922      44.31212500      22.86355769
I       54.26723078      46.70737500      31.74405769
I       59.48433078      46.70737500      30.41944231
I       60.50896922      44.31212500      21.53894231
I       52.50395532      44.31212500      28.67495689
I       57.05514468      46.70737500      19.79445689
I       62.27224468      46.70737500      24.60804311
I       57.72105532      44.31212500      33.48854311
I       53.87407012      44.31212500      35.55041760
I       55.68502988      46.70737500      44.43091760
I       60.90212988      46.70737500      53.25458240
I       59.09117012      44.31212500      44.37408240
I       55.29186922      44.31212500      40.62455769
I       54.26723078      46.70737500      49.50505769
I       59.48433078      46.70737500      48.18044231
I       60.50896922      44.31212500      39.29994231
I       52.50395532      44.31212500      46.43595689
I       57.05514468      46.70737500      37.55545689
I       62.27224468      46.70737500      42.36904311
I       57.72105532      44.31212500      51.24954311
I       53.87407012      44.31212500      53.31141760
I       55.68502988      46.70737500      62.19191760
I       60.90212988      46.70737500      71.01558240
I       59.09117012      44.31212500      62.13508240
I       55.29186922      44.31212500      58.38555769
I       54.26723078      46.70737500      67.26605769
I       59.48433078      46.70737500      65.94144231
I       60.50896922      44.31212500      57.06094231
I       52.50395532      44.31212500      64.19695689
I       57.05514468      46.70737500      55.31645689
I       62.27224468      46.70737500      60.13004311
I       57.72105532      44.31212500      69.01054311
I       53.87407012      49.10262500       0.02841760
I       55.68502988      51.49787500       8.90891760
I       60.90212988      51.49787500      17.73258240
I       59.09117012      49.10262500       8.85208240
I       55.29186922      49.10262500       5.10255769
I       54.26723078      51.49787500      13.98305769
I       59.48433078      51.49787500      12.65844231
I       60.50896922      49.10262500       3.77794231
I       52.50395532      49.10262500      10.91395689
I       57.05514468      51.49787500       2.03345689
I       62.27224468      51.49787500       6.84704311
I       57.72105532      49.10262500      15.72754311
I       53.87407012      49.10262500      17.78941760
I       55.68502988      51.49787500      26.66991760
I       60.90212988      51.49787500      35.49358240
I       59.09117012      49.10262500      26.61308240
I       55.29186922      49.10262500      22.86355769
I       54.26723078      51.49787500      31.74405769
I       59.48433078      51.49787500      30.41944231
I       60.50896922      49.10262500      21.53894231
I       52.50395532      49.10262500      28.67495689
I       57.05514468      51.49787500      19.79445689
I       62.27224468      51.49787500      24.60804311
I       57.72105532      49.10262500      33.48854311
I       53.87407012      49.10262500      35.55041760
I       55.68502988      51.49787500      44.43091760
I       60.90212988      51.49787500      53.25458240
I       59.09117012      49.10262500      44.37408240
I       55.29186922      49.10262500      40.62455769
I       54.26723078      51.49787500      49.50505769
I       59.48433078      51.49787500      48.18044231
I       60.50896922      49.10262500      39.29994231
I       52.50395532      49.10262500      46.43595689
I       57.05514468      51.49787500      37.55545689
I       62.27224468      51.49787500      42.36904311
I       57.72105532      49.10262500      51.24954311
I       53.87407012      49.10262500      53.31141760
I       55.68502988      51.49787500      62.19191760
I       60.90212988      51.49787500      71.01558240
I       59.09117012      49.10262500      62.13508240
I       55.29186922      49.10262500      58.38555769
I       54.26723078      51.49787500      67.26605769
I       59.48433078      51.49787500      65.94144231
I       60.50896922      49.10262500      57.06094231
I       52.50395532      49.10262500      64.19695689
I       57.05514468      51.49787500      55.31645689
I       62.27224468      51.49787500      60.13004311
I       57.72105532      49.10262500      69.01054311
I       53.87407012      53.89312500       0.02841760
I       55.68502988      56.28837500       8.90891760
I       60.90212988      56.28837500      17.73258240
I       59.09117012      53.89312500       8.85208240
I       55.29186922      53.89312500       5.10255769
I       54.26723078      56.28837500      13.98305769
I       59.48433078      56.28837500      12.65844231
I       60.50896922      53.89312500       3.77794231
I       52.50395532      53.89312500      10.91395689
I       57.05514468      56.28837500       2.03345689
I       62.27224468      56.28837500       6.84704311
I       57.72105532      53.89312500      15.72754311
I       53.87407012      53.89312500      17.78941760
I       55.68502988      56.28837500      26.66991760
I       60.90212988      56.28837500      35.49358240
I       59.09117012      53.89312500      26.61308240
I       55.29186922      53.89312500      22.86355769
I       54.26723078      56.28837500      31.74405769
I       59.48433078      56.28837500      30.41944231
I       60.50896922      53.89312500      21.53894231
I       52.50395532      53.89312500      28.67495689
I       57.05514468      56.28837500      19.79445689
I       62.27224468      56.28837500      24.60804311
I       57.72105532      53.89312500      33.48854311
I       53.87407012      53.89312500      35.55041760
I       55.68502988      56.28837500      44.43091760
I       60.90212988      56.28837500      53.25458240
I       59.09117012      53.89312500      44.37408240
I       55.29186922      53.89312500      40.62455769
I       54.26723078      56.28837500      49.50505769
I       59.48433078      56.28837500      48.18044231
I       60.50896922      53.89312500      39.29994231
I       52.50395532      53.89312500      46.43595689
I       57.05514468      56.28837500      37.55545689
I       62.27224468      56.28837500      42.36904311
I       57.72105532      53.89312500      51.24954311
I       53.87407012      53.89312500      53.31141760
I       55.68502988      56.28837500      62.19191760
I       60.90212988      56.28837500      71.01558240
I       59.09117012      53.89312500      62.13508240
I       55.29186922      53.89312500      58.38555769
I       54.26723078      56.28837500      67.26605769
I       59.48433078      56.28837500      65.94144231
I       60.50896922      53.89312500      57.06094231
I       52.50395532      53.89312500      64.19695689
I       57.05514468      56.28837500      55.31645689
I       62.27224468      56.28837500      60.13004311
I       57.72105532      53.89312500      69.01054311
I       53.87407012      58.68362500       0.02841760
I       55.68502988      61.07887500       8.90891760
I       60.90212988      61.07887500      17.73258240
I       59.09117012      58.68362500       8.85208240
I       55.29186922      58.68362500       5.10255769
I       54.26723078      61.07887500      13.98305769
I       59.48433078      61.07887500      12.65844231
I       60.50896922      58.68362500       3.77794231
I       52.50395532      58.68362500      10.91395689
I       57.05514468      61.07887500       2.03345689
I       62.27224468      61.07887500       6.84704311
I       57.72105532      58.68362500      15.72754311
I       53.87407012      58.68362500      17.78941760
I       55.68502988      61.07887500      26.66991760
I       60.90212988      61.07887500      35.49358240
I       59.09117012      58.68362500      26.61308240
I       55.29186922      58.68362500      22.86355769
I       54.26723078      61.07887500      31.74405769
I       59.48433078      61.07887500      30.41944231
I       60.50896922      58.68362500      21.53894231
I       52.50395532      58.68362500      28.67495689
I       57.05514468      61.07887500      19.79445689
I       62.27224468      61.07887500      24.60804311
I       57.72105532      58.68362500      33.48854311
I       53.87407012      58.68362500      35.55041760
I       55.68502988      61.07887500      44.43091760
I       60.90212988      61.07887500      53.25458240
I       59.09117012      58.68362500      44.37408240
I       55.29186922      58.68362500      40.62455769
I       54.26723078      61.07887500      49.50505769
I       59.48433078      61.07887500      48.18044231
I       60.50896922      58.68362500      39.29994231
I       52.50395532      58.68362500      46.43595689
I       57.05514468      61.07887500      37.55545689
I       62.27224468      61.07887500      42.36904311
I       57.72105532      58.68362500      51.24954311
I       53.87407012      58.68362500      53.31141760
I       55.68502988      61.07887500      62.19191760
I       60.90212988      61.07887500      71.01558240
I       59.09117012      58.68362500      62.13508240
I       55.29186922      58.68362500      58.38555769
I       54.26723078      61.07887500      67.26605769
I       59.48433078      61.07887500      65.94144231
I       60.50896922      58.68362500      57.06094231
I       52.50395532      58.68362500      64.19695689
I       57.05514468      61.07887500      55.31645689
I       62.27224468      61.07887500      60.13004311
I       57.72105532      58.68362500      69.01054311
I       53.87407012      63.47412500       0.02841760
I       55.68502988      65.86937500       8.90891760
I       60.90212988      65.86937500      17.73258240
I       59.09117012      63.47412500       8.85208240
I       55.29186922      63.47412500       5.10255769
I       54.26723078      65.86937500      13.98305769
I       59.48433078      65.86937500      12.65844231
I       60.50896922      63.47412500       3.77794231
I       52.50395532      63.47412500      10.91395689
I       57.05514468      65.86937500       2.03345689
I       62.27224468      65.86937500       6.84704311
I       57.72105532      63.47412500      15.72754311
I       53.87407012      63.47412500      17.78941760
I       55.68502988      65.86937500      26.66991760
I       60.90212988      65.86937500      35.49358240
I       59.09117012      63.47412500      26.61308240
I       55.29186922      63.47412500      22.86355769
I       54.26723078      65.86937500      31.74405769
I       59.48433078      65.86937500      30.41944231
I       60.50896922      63.47412500      21.53894231
I       52.50395532      63.47412500      28.67495689
I       57.05514468      65.86937500      19.79445689
I       62.27224468      65.86937500      24.60804311
I       57.72105532      63.47412500      33.48854311
I       53.87407012      63.47412500      35.55041760
I       55.68502988      65.86937500      44.43091760
I       60.90212988      65.86937500      53.25458240
I       59.09117012      63.47412500      44.37408240
I       55.29186922      63.47412500      40.62455769
I       54.26723078      65.86937500      49.50505769
I       59.48433078      65.86937500      48.18044231
I       60.50896922      63.47412500      39.29994231
I       52.50395532      63.47412500      46.43595689
I       57.05514468      65.86937500      37.55545689
I       62.27224468      65.86937500      42.36904311
I       57.72105532      63.47412500      51.24954311
I       53.87407012      63.47412500      53.31141760
I       55.68502988      65.86937500      62.19191760
I       60.90212988      65.86937500      71.01558240
I       59.09117012      63.47412500      62.13508240
I       55.29186922      63.47412500      58.38555769
I       54.26723078      65.86937500      67.26605769
I       59.48433078      65.86937500      65.94144231
I       60.50896922      63.47412500      57.06094231
I       52.50395532      63.47412500      64.19695689
I       57.05514468      65.86937500      55.31645689
I       62.27224468      65.86937500      60.13004311
I       57.72105532      63.47412500      69.01054311
I       53.87407012      68.26462500       0.02841760
I       55.68502988      70.65987500       8.90891760
I       60.90212988      70.65987500      17.73258240
I       59.09117012      68.26462500       8.85208240
I       55.29186922      68.26462500       5.10255769
I       54.26723078      70.65987500      13.98305769
I       59.48433078      70.65987500      12.65844231
I       60.50896922      68.26462500       3.77794231
I       52.50395532      68.26462500      10.91395689
I       57.05514468      70.65987500       2.03345689
I       62.27224468      70.65987500       6.84704311
I       57.72105532      68.26462500      15.72754311
I       53.87407012      68.26462500      17.78941760
I       55.68502988      70.65987500      26.66991760
I       60.90212988      70.65987500      35.49358240
I       59.09117012      68.26462500      26.61308240
I       55.29186922      68.26462500      22.86355769
I       54.26723078      70.65987500      31.74405769
I       59.48433078      70.65987500      30.41944231
I       60.50896922      68.26462500      21.53894231
I       52.50395532      68.26462500      28.67495689
I       57.05514468      70.65987500      19.79445689
I       62.27224468      70.65987500      24.60804311
I       57.72105532      68.26462500      33.48854311
I       53.87407012      68.26462500      35.55041760
I       55.68502988      70.65987500      44.43091760
I       60.90212988      70.65987500      53.25458240
I       59.09117012      68.26462500      44.37408240
I       55.29186922      68.26462500      40.62455769
I       54.26723078      70.65987500      49.50505769
I       59.48433078      70.65987500      48.18044231
I       60.50896922      68.26462500      39.29994231
I       52.50395532      68.26462500      46.43595689
I       57.05514468      70.65987500      37.55545689
I       62.27224468      70.65987500      42.36904311
I       57.72105532      68.26462500      51.24954311
I       53.87407012      68.26462500      53.31141760
I       55.68502988      70.65987500      62.19191760
I       60.90212988      70.65987500      71.01558240
I       59.09117012      68.26462500      62.13508240
I       55.29186922      68.26462500      58.38555769
I       54.26723078      70.65987500      67.26605769
I       59.48433078      70.65987500      65.94144231
I       60.50896922      68.26462500      57.06094231
I       52.50395532      68.26462500      64.19695689
I       57.05514468      70.65987500      55.31645689
I       62.27224468      70.65987500      60.13004311
I       57.72105532      68.26462500      69.01054311
I       53.87407012      73.05512500       0.02841760
I       55.68502988      75.45037500       8.90891760
I       60.90212988      75.45037500      17.73258240
I       59.09117012      73.05512500       8.85208240
I       55.29186922      73.05512500       5.10255769
I       54.26723078      75.45037500      13.98305769
I       59.48433078      75.45037500      12.65844231
I       60.50896922      73.05512500       3.77794231
I       52.50395532      73.05512500      10.91395689
I       57.05514468      75.45037500       2.03345689
I       62.27224468      75.45037500       6.84704311
I       57.72105532      73.05512500      15.72754311
I       53.87407012      73.05512500      17.78941760
I       55.68502988      75.45037500      26.66991760
I       60.90212988      75.45037500      35.49358240
I       59.09117012      73.05512500      26.61308240
I       55.29186922      73.05512500      22.86355769
I       54.26723078      75.45037500      31.74405769
I       59.48433078      75.45037500      30.41944231
I       60.50896922      73.05512500      21.53894231
I       52.50395532      73.05512500      28.67495689
I       57.05514468      75.45037500      19.79445689
I       62.27224468      75.45037500      24.60804311
I       57.72105532      73.05512500      33.48854311
I       53.87407012      73.05512500      35.55041760
I       55.68502988      75.45037500      44.43091760
I       60.90212988      75.45037500      53.25458240
I       59.09117012      73.05512500      44.37408240
I       55.29186922      73.05512500      40.62455769
I       54.26723078      75.45037500      49.50505769
I       59.48433078      75.45037500      48.18044231
I       60.50896922      73.05512500      39.29994231
I       52.50395532      73.05512500      46.43595689
I       57.05514468      75.45037500      37.55545689
I       62.27224468      75.45037500      42.36904311
I       57.72105532      73.05512500      51.24954311
I       53.87407012      73.05512500      53.31141760
I       55.68502988      75.45037500      62.19191760
I       60.90212988      75.45037500      71.01558240
I       59.09117012      73.05512500      62.13508240
I       55.29186922      73.05512500      58.38555769
I       54.26723078      75.45037500      67.26605769
I       59.48433078      75.45037500      65.94144231
I       60.50896922      73.05512500      57.06094231
I       52.50395532      73.05512500      64.19695689
I       57.05514468      75.45037500      55.31645689
I       62.27224468      75.45037500      60.13004311
I       57.72105532      73.05512500      69.01054311
I       53.87407012      77.84562500       0.02841760
I       55.68502988      80.24087500       8.90891760
I       60.90212988      80.24087500      17.73258240
I       59.09117012      77.84562500       8.85208240
I       55.29186922      77.84562500       5.10255769
I       54.26723078      80.24087500      13.98305769
I       59.48433078      80.24087500      12.65844231
I       60.50896922      77.84562500       3.77794231
I       52.50395532      77.84562500      10.91395689
I       57.05514468      80.24087500       2.03345689
I       62.27224468      80.24087500       6.84704311
I       57.72105532      77.84562500      15.72754311
I       53.87407012      77.84562500      17.78941760
I       55.68502988      80.24087500      26.66991760
I       60.90212988      80.24087500      35.49358240
I       59.09117012      77.84562500      26.61308240
I       55.29186922      77.84562500      22.86355769
I       54.26723078      80.24087500      31.74405769
I       59.48433078      80.24087500      30.41944231
I       60.50896922      77.84562500      21.53894231
I       52.50395532      77.84562500      28.67495689
I       57.05514468      80.24087500      19.79445689
I       62.27224468      80.24087500      24.60804311
I       57.72105532      77.84562500      33.48854311
I       53.87407012      77.84562500      35.55041760
I       55.68502988      80.24087500      44.43091760
I       60.90212988      80.24087500      53.25458240
I       59.09117012      77.84562500      44.37408240
I       55.29186922      77.84562500      40.62455769
I       54.26723078      80.24087500      49.50505769
I       59.48433078      80.24087500      48.18044231
I       60.50896922      77.84562500      39.29994231
I       52.50395532      77.84562500      46.43595689
I       57.05514468      80.24087500      37.55545689
I       62.27224468      80.24087500      42.36904311
I       57.72105532      77.84562500      51.24954311
I       53.87407012      77.84562500      53.31141760
I       55.68502988      80.24087500      62.19191760
I       60.90212988      80.24087500      71.01558240
I       59.09117012      77.84562500      62.13508240
I       55.29186922      77.84562500      58.38555769
I       54.26723078      80.24087500      67.26605769
I       59.48433078      80.24087500      65.94144231
I       60.50896922      77.84562500      57.06094231
I       52.50395532      77.84562500      64.19695689
I       57.05514468      80.24087500      55.31645689
I       62.27224468      80.24087500      60.13004311
I       57.72105532      77.84562500      69.01054311
I       53.87407012      82.63612500       0.02841760
I       55.68502988      85.03137500       8.90891760
I       60.90212988      85.03137500      17.73258240
I       59.09117012      82.63612500       8.85208240
I       55.29186922      82.63612500       5.10255769
I       54.26723078      85.03137500      13.98305769
I       59.48433078      85.03137500      12.65844231
I       60.50896922      82.63612500       3.77794231
I       52.50395532      82.63612500      10.91395689
I       57.05514468      85.03137500       2.03345689
I       62.27224468      85.03137500       6.84704311
I       57.72105532      82.63612500      15.72754311
I       53.87407012      82.63612500      17.78941760
I       55.68502988      85.03137500      26.66991760
I       60.90212988      85.03137500      35.49358240
I       59.09117012      82.63612500      26.61308240
I       55.29186922      82.63612500      22.86355769
I       54.26723078      85.03137500      31.74405769
I       59.48433078      85.03137500      30.41944231
I       60.50896922      82.63612500      21.53894231
I       52.50395532      82.63612500      28.67495689
I       57.05514468      85.03137500      19.79445689
I       62.27224468      85.03137500      24.60804311
I       57.72105532      82.63612500      33.48854311
I       53.87407012      82.63612500      35.55041760
I       55.68502988      85.03137500      44.43091760
I       60.90212988      85.03137500      53.25458240
I       59.09117012      82.63612500      44.37408240
I       55.29186922      82.63612500      40.62455769
I       54.26723078      85.03137500      49.50505769
I       59.48433078      85.03137500      48.18044231
I       60.50896922      82.63612500      39.29994231
I       52.50395532      82.63612500      46.43595689
I       57.05514468      85.03137500      37.55545689
I       62.27224468      85.03137500      42.36904311
I       57.72105532      82.63612500      51.24954311
I       53.87407012      82.63612500      53.31141760
I       55.68502988      85.03137500      62.19191760
I       60.90212988      85.03137500      71.01558240
I       59.09117012      82.63612500      62.13508240
I       55.29186922      82.63612500      58.38555769
I       54.26723078      85.03137500      67.26605769
I       59.48433078      85.03137500      65.94144231
I       60.50896922      82.63612500      57.06094231
I       52.50395532      82.63612500      64.19695689
I       57.05514468      85.03137500      55.31645689
I       62.27224468      85.03137500      60.13004311
I       57.72105532      82.63612500      69.01054311
