Cs I  Pb
 1.0000000000000000
     8.6616278469846275   -0.0000000000000000    0.0000000000000000
    -0.0000000000000000   17.3232616518447280    0.0000000000000000
     0.0000000000000000    0.0000000000000000   12.8140022836449390
 Cs  I   Pb 
   8  24   8
Selective dynamics
Cartesian
  4.3308139234923138  0.0000000000000000  3.2035005709112334   T   T   T
 -0.0000000000000000  4.3308154129611811  3.2035005709112334   T   T   T
  4.3308139234923138  0.0000000000000000  9.6105017127337025   T   T   T
 -0.0000000000000000  4.3308154129611811  9.6105017127337025   T   T   T
  4.3308139234923138  8.6616308259223622  3.2035005709112334   T   T   T
 -0.0000000000000000 12.9924462388835451  3.2035005709112334   T   T   T
  4.3308139234923138  8.6616308259223622  9.6105017127337025   T   T   T
 -0.0000000000000000 12.9924462388835451  9.6105017127337025   T   T   T
  0.0000000000000000 -0.0000000000000000  3.2035005709112334   T   T   T
  4.3308139234923138  4.3308154129611811  3.2035005709112334   T   T   T
  7.0771374988096269  2.7463498553288188 -0.0000000000000000   T   T   T
  1.5844903481750037  5.9152809705935443  0.0000000000000000   T   T   T
  5.9153042716673143  7.0771652682900017  0.0000000000000000   T   T   T
  2.7463235753173110  1.5844655576323639  0.0000000000000000   T   T   T
  0.0000000000000000 -0.0000000000000000  9.6105017127337025   T   T   T
  4.3308139234923138  4.3308154129611811  9.6105017127337025   T   T   T
  7.0771374988096269  2.7463498553288184  6.4070011418224668   T   T   T
  1.5844903481750037  5.9152809705935443  6.4070011418224668   T   T   T
  5.9153042716673143  7.0771652682900026  6.4070011418224668   T   T   T
  2.7463235753173110  1.5844655576323639  6.4070011418224668   T   T   T
 -0.0000000000000000  8.6616308259223622  3.2035005709112334   T   T   T
  4.3308139234923138 12.9924462388835451  3.2035005709112334   T   T   T
  7.0771374988096269 11.4079806812511801  0.0000000000000000   T   T   T
  1.5844903481750037 14.5769117965159154  0.0000000000000000   T   T   T
  5.9153042716673143 15.7387960942123630  0.0000000000000000   T   T   T
  2.7463235753173110 10.2460963835547307  0.0000000000000000   T   T   T
 -0.0000000000000000  8.6616308259223622  9.6105017127337025   T   T   T
  4.3308139234923138 12.9924462388835451  9.6105017127337025   T   T   T
  7.0771374988096269 11.4079806812511801  6.4070011418224668   T   T   T
  1.5844903481750037 14.5769117965159154  6.4070011418224668   T   T   T
  5.9153042716673143 15.7387960942123630  6.4070011418224668   T   T   T
  2.7463235753173110 10.2460963835547307  6.4070011418224668   T   T   T
  0.0000000000000000 -0.0000000000000000  0.0000000000000000   T   T   T
  4.3308139234923138  4.3308154129611811  0.0000000000000000   T   T   T
  0.0000000000000000  0.0000000000000000  6.4070011418224668   T   T   T
  4.3308139234923138  4.3308154129611811  6.4070011418224668   T   T   T
  0.0000000000000000  8.6616308259223622  0.0000000000000000   T   T   T
  4.3308139234923138 12.9924462388835451  0.0000000000000000   T   T   T
  0.0000000000000000  8.6616308259223622  6.4070011418224668   T   T   T
  4.3308139234923138 12.9924462388835451  6.4070011418224668   T   T   T
