Cs I  Pb
 1.0000000000000000
     8.6463405227753185   -0.0000015778749303   -0.0000000466686682
    -0.0000031557510224   17.2926835989686616    0.0000000526345357
    -0.0000000630018661    0.0000000338323786   12.8429609321151652
 Cs  I   Pb 
   8  24   8
Cartesian
  4.3231681730561213  0.0000007943763446  3.2107406292139080
 -0.0000023304850950  4.3231678589344549  3.2107717359214183
  4.3231750173561139  0.0000009689885886  9.6322105329340655
  0.0000054242524849  4.3231725581541633  9.6321956763263703
  4.3231676697294361  8.6463341024169882  3.2107418070636218
  0.0000049901699126 12.9695104976161062  3.2107521737126570
  4.3231812323442229  8.6463402538412577  9.6322156486576933
 -0.0000050301432809 12.9695188308493634  9.6322087724353906
  0.0000023749107560  0.0000115396811408  3.2108960601951853
  4.3231712606393415  4.3231674632170796  3.2104726395331014
  7.1037523710247807  2.7804612804538107  0.0000035866594128
  1.5425971259652900  5.8658914289152726 -0.0000016724629214
  5.8658899448327499  7.1037135940667140 -0.0000000653647184
  2.7804749446208001  1.5426352077323406  0.0000080725035845
  0.0000020283226757  0.0000108204335235  9.6326235482243927
  4.3231673926131196  4.3231725793575793  9.6319061821663290
  7.1037624457337420  2.7804915110333521  6.4214767301578659
  1.5425943074070587  5.8658398252089965  6.4214785055134458
  5.8658737645620711  7.1037130026991013  6.4214800965170618
  2.7804674921055197  1.5426402510552841  6.4214828975292138
 -0.0000029092089569  8.6463340906746033  3.2108651097749892
  4.3231682342064062 12.9695075703952867  3.2104017850221340
  7.1035640479980522 11.4269354310153055 -0.0000007578566719
  1.5427780756051668 14.5120983925548117  0.0000094005655381
  5.8657990371440789 15.7499339888530177  0.0000034170475775
  2.7805521515076830 10.1890689919474884  0.0000050667872813
 -0.0000061107413977  8.6463320651210278  9.6326788227884723
  4.3231688337057035 12.9695127313507577  9.6319467382306474
  7.1035687120712359 11.4269548305792767  6.4214896025480286
  1.5427565561709460 14.5120810699404377  6.4214783988380857
  5.8657838212090665 15.7499247848309896  6.4214871411633698
  2.7805646179156955 10.1890693796496148  6.4214809918001086
 -0.0000272147628961  0.0000208778205033 -0.0000045577527742
  4.3231521164160140  4.3232031815987018  0.0000425730808365
 -0.0000149111311104  0.0000539097576043  6.4214109996009894
  4.3231545331089105  4.3231777561481666  6.4215223765707199
 -0.0000170455368603  8.6462278721823278  0.0000232867634513
  4.3231599231110067 12.9695599249646527  0.0000366897435571
 -0.0000290084405386  8.6462488718431203  6.4213709974417945
  4.3231889330536726 12.9695591744100227  6.4215417626284950
