Cs I  Pb
 1.0000000000000000
    10.5753126303703500   -0.0000001228500434    0.0000019251728338
    -0.0000001130190936    9.8678601736854130   -0.0000000274653711
     0.0000032831334758   -0.0000000515239171   17.9652027724638472
 Cs  I   Pb 
   8  24   8
Cartesian
  4.4695055228021925  1.2334899636645269 12.0662639209008340
  0.8181567759734548  3.7004411682087661  3.0836552246019124
  6.1058065361472540  3.7004533763329071  5.8989453152731164
  9.7571509788758526  1.2334767695051443 14.8815414953037717
  4.4695064503556550  6.1674187137239631 12.0662627393284705
  0.8181566996496575  8.6343691722699862  3.0836562816209891
  6.1058055382761935  8.6343842645299489  5.8989434589248919
  9.7571510395595560  6.1674045683953302 14.8815424282771858
  1.7414669425011031  1.2334856264993199  0.0865792966816268
  3.5461827751297315  3.7004544178867449  9.0691692886092650
  8.8338758515747546  3.7004415565296429 17.8786294111552344
  7.0291594401409112  1.2334827717750438  8.8960351423999526
  3.1245527766807406  1.2334867555113849  5.1536330516356657
  2.1631368789231860  3.7004434778119002 14.1363174736923085
  7.4508295328912135  3.7004506940566562 12.8114403605419547
  8.4122596756163350  1.2334783891043852  3.8290427995013281
  0.2845368216413909  1.2334809395545117 10.9830611718996369
  5.0030481605666433  3.7004431893188845  2.0004962978326235
 10.2906958953543715  3.7004532538660357  6.9820915215298198
  5.5721783430208571  1.2334853472955727 15.9647498734339024
  1.7414635753614356  6.1673930074465284  0.0865822166025690
  3.5461897370509767  8.6343858570135819  9.0691727860803262
  8.8338695379398509  8.6343659112450961 17.8786326140952276
  7.0291610003530813  6.1674296401201278  8.8960366470633740
  3.1245594606892126  6.1674177000815931  5.1536128780510584
  2.1631176559237391  8.6343763392848523 14.1362813043215834
  7.4508490897522224  8.6343829189858354 12.8113963130188484
  8.4122539896219433  6.1674094507251871  3.8290350889662994
  0.2845319813597543  6.1674251633084269 10.9830594476078200
  5.0030595346006876  8.6343687442565944  2.0005046994506483
 10.2906833267448796  8.6343881452979261  6.9820977600211025
  5.5721799240398830  6.1673961912996491 15.9647523549758397
  1.7130904430830245  1.2334897418980533  7.9258760241330091
  3.5746436902389291  3.7004461579514230 16.9083603422013304
  8.8622217785157940  3.7004470222670505 10.0394849260365593
  7.0006646326403050  1.2334787142363337  1.0566757619209097
  1.7130817092620676  6.1674015112593104  7.9258915150896563
  3.5746580546764442  8.6343818687347813 16.9083898413449312
  8.8622088170539772  8.6343710211890734 10.0395162271398757
  7.0006656760281798  6.1674205149942773  1.0566783292650448
