8640
Lattice="75.47279999999999 0.0 0.0 0.0 75.47279999999999 0.0 0.0 0.0 75.47279999999999" Properties=species:S:1:pos:R:3 pbc="T T T"
Cs       3.14470000       3.14470000       3.14470000
Cs       3.14470000       3.14470000       9.43410000
Cs       3.14470000       3.14470000      15.72350000
Cs       3.14470000       3.14470000      22.01290000
Cs       3.14470000       3.14470000      28.30230000
Cs       3.14470000       3.14470000      34.59170000
Cs       3.14470000       3.14470000      40.88110000
Cs       3.14470000       3.14470000      47.17050000
Cs       3.14470000       3.14470000      53.45990000
Cs       3.14470000       3.14470000      59.74930000
Cs       3.14470000       3.14470000      66.03870000
Cs       3.14470000       3.14470000      72.32810000
Cs       3.14470000       9.43410000       3.14470000
Cs       3.14470000       9.43410000       9.43410000
Cs       3.14470000       9.43410000      15.72350000
Cs       3.14470000       9.43410000      22.01290000
Cs       3.14470000       9.43410000      28.30230000
Cs       3.14470000       9.43410000      34.59170000
Cs       3.14470000       9.43410000      40.88110000
Cs       3.14470000       9.43410000      47.17050000
Cs       3.14470000       9.43410000      53.45990000
Cs       3.14470000       9.43410000      59.74930000
Cs       3.14470000       9.43410000      66.03870000
Cs       3.14470000       9.43410000      72.32810000
Cs       3.14470000      15.72350000       3.14470000
Cs       3.14470000      15.72350000       9.43410000
Cs       3.14470000      15.72350000      15.72350000
Cs       3.14470000      15.72350000      22.01290000
Cs       3.14470000      15.72350000      28.30230000
Cs       3.14470000      15.72350000      34.59170000
Cs       3.14470000      15.72350000      40.88110000
Cs       3.14470000      15.72350000      47.17050000
Cs       3.14470000      15.72350000      53.45990000
Cs       3.14470000      15.72350000      59.74930000
Cs       3.14470000      15.72350000      66.03870000
Cs       3.14470000      15.72350000      72.32810000
Cs       3.14470000      22.01290000       3.14470000
Cs       3.14470000      22.01290000       9.43410000
Cs       3.14470000      22.01290000      15.72350000
Cs       3.14470000      22.01290000      22.01290000
Cs       3.14470000      22.01290000      28.30230000
Cs       3.14470000      22.01290000      34.59170000
Cs       3.14470000      22.01290000      40.88110000
Cs       3.14470000      22.01290000      47.17050000
Cs       3.14470000      22.01290000      53.45990000
Cs       3.14470000      22.01290000      59.74930000
Cs       3.14470000      22.01290000      66.03870000
Cs       3.14470000      22.01290000      72.32810000
Cs       3.14470000      28.30230000       3.14470000
Cs       3.14470000      28.30230000       9.43410000
Cs       3.14470000      28.30230000      15.72350000
Cs       3.14470000      28.30230000      22.01290000
Cs       3.14470000      28.30230000      28.30230000
Cs       3.14470000      28.30230000      34.59170000
Cs       3.14470000      28.30230000      40.88110000
Cs       3.14470000      28.30230000      47.17050000
Cs       3.14470000      28.30230000      53.45990000
Cs       3.14470000      28.30230000      59.74930000
Cs       3.14470000      28.30230000      66.03870000
Cs       3.14470000      28.30230000      72.32810000
Cs       3.14470000      34.59170000       3.14470000
Cs       3.14470000      34.59170000       9.43410000
Cs       3.14470000      34.59170000      15.72350000
Cs       3.14470000      34.59170000      22.01290000
Cs       3.14470000      34.59170000      28.30230000
Cs       3.14470000      34.59170000      34.59170000
Cs       3.14470000      34.59170000      40.88110000
Cs       3.14470000      34.59170000      47.17050000
Cs       3.14470000      34.59170000      53.45990000
Cs       3.14470000      34.59170000      59.74930000
Cs       3.14470000      34.59170000      66.03870000
Cs       3.14470000      34.59170000      72.32810000
Cs       3.14470000      40.88110000       3.14470000
Cs       3.14470000      40.88110000       9.43410000
Cs       3.14470000      40.88110000      15.72350000
Cs       3.14470000      40.88110000      22.01290000
Cs       3.14470000      40.88110000      28.30230000
Cs       3.14470000      40.88110000      34.59170000
Cs       3.14470000      40.88110000      40.88110000
Cs       3.14470000      40.88110000      47.17050000
Cs       3.14470000      40.88110000      53.45990000
Cs       3.14470000      40.88110000      59.74930000
Cs       3.14470000      40.88110000      66.03870000
Cs       3.14470000      40.88110000      72.32810000
Cs       3.14470000      47.17050000       3.14470000
Cs       3.14470000      47.17050000       9.43410000
Cs       3.14470000      47.17050000      15.72350000
Cs       3.14470000      47.17050000      22.01290000
Cs       3.14470000      47.17050000      28.30230000
Cs       3.14470000      47.17050000      34.59170000
Cs       3.14470000      47.17050000      40.88110000
Cs       3.14470000      47.17050000      47.17050000
Cs       3.14470000      47.17050000      53.45990000
Cs       3.14470000      47.17050000      59.74930000
Cs       3.14470000      47.17050000      66.03870000
Cs       3.14470000      47.17050000      72.32810000
Cs       3.14470000      53.45990000       3.14470000
Cs       3.14470000      53.45990000       9.43410000
Cs       3.14470000      53.45990000      15.72350000
Cs       3.14470000      53.45990000      22.01290000
Cs       3.14470000      53.45990000      28.30230000
Cs       3.14470000      53.45990000      34.59170000
Cs       3.14470000      53.45990000      40.88110000
Cs       3.14470000      53.45990000      47.17050000
Cs       3.14470000      53.45990000      53.45990000
Cs       3.14470000      53.45990000      59.74930000
Cs       3.14470000      53.45990000      66.03870000
Cs       3.14470000      53.45990000      72.32810000
Cs       3.14470000      59.74930000       3.14470000
Cs       3.14470000      59.74930000       9.43410000
Cs       3.14470000      59.74930000      15.72350000
Cs       3.14470000      59.74930000      22.01290000
Cs       3.14470000      59.74930000      28.30230000
Cs       3.14470000      59.74930000      34.59170000
Cs       3.14470000      59.74930000      40.88110000
Cs       3.14470000      59.74930000      47.17050000
Cs       3.14470000      59.74930000      53.45990000
Cs       3.14470000      59.74930000      59.74930000
Cs       3.14470000      59.74930000      66.03870000
Cs       3.14470000      59.74930000      72.32810000
Cs       3.14470000      66.03870000       3.14470000
Cs       3.14470000      66.03870000       9.43410000
Cs       3.14470000      66.03870000      15.72350000
Cs       3.14470000      66.03870000      22.01290000
Cs       3.14470000      66.03870000      28.30230000
Cs       3.14470000      66.03870000      34.59170000
Cs       3.14470000      66.03870000      40.88110000
Cs       3.14470000      66.03870000      47.17050000
Cs       3.14470000      66.03870000      53.45990000
Cs       3.14470000      66.03870000      59.74930000
Cs       3.14470000      66.03870000      66.03870000
Cs       3.14470000      66.03870000      72.32810000
Cs       3.14470000      72.32810000       3.14470000
Cs       3.14470000      72.32810000       9.43410000
Cs       3.14470000      72.32810000      15.72350000
Cs       3.14470000      72.32810000      22.01290000
Cs       3.14470000      72.32810000      28.30230000
Cs       3.14470000      72.32810000      34.59170000
Cs       3.14470000      72.32810000      40.88110000
Cs       3.14470000      72.32810000      47.17050000
Cs       3.14470000      72.32810000      53.45990000
Cs       3.14470000      72.32810000      59.74930000
Cs       3.14470000      72.32810000      66.03870000
Cs       3.14470000      72.32810000      72.32810000
Cs       9.43410000       3.14470000       3.14470000
Cs       9.43410000       3.14470000       9.43410000
Cs       9.43410000       3.14470000      15.72350000
Cs       9.43410000       3.14470000      22.01290000
Cs       9.43410000       3.14470000      28.30230000
Cs       9.43410000       3.14470000      34.59170000
Cs       9.43410000       3.14470000      40.88110000
Cs       9.43410000       3.14470000      47.17050000
Cs       9.43410000       3.14470000      53.45990000
Cs       9.43410000       3.14470000      59.74930000
Cs       9.43410000       3.14470000      66.03870000
Cs       9.43410000       3.14470000      72.32810000
Cs       9.43410000       9.43410000       3.14470000
Cs       9.43410000       9.43410000       9.43410000
Cs       9.43410000       9.43410000      15.72350000
Cs       9.43410000       9.43410000      22.01290000
Cs       9.43410000       9.43410000      28.30230000
Cs       9.43410000       9.43410000      34.59170000
Cs       9.43410000       9.43410000      40.88110000
Cs       9.43410000       9.43410000      47.17050000
Cs       9.43410000       9.43410000      53.45990000
Cs       9.43410000       9.43410000      59.74930000
Cs       9.43410000       9.43410000      66.03870000
Cs       9.43410000       9.43410000      72.32810000
Cs       9.43410000      15.72350000       3.14470000
Cs       9.43410000      15.72350000       9.43410000
Cs       9.43410000      15.72350000      15.72350000
Cs       9.43410000      15.72350000      22.01290000
Cs       9.43410000      15.72350000      28.30230000
Cs       9.43410000      15.72350000      34.59170000
Cs       9.43410000      15.72350000      40.88110000
Cs       9.43410000      15.72350000      47.17050000
Cs       9.43410000      15.72350000      53.45990000
Cs       9.43410000      15.72350000      59.74930000
Cs       9.43410000      15.72350000      66.03870000
Cs       9.43410000      15.72350000      72.32810000
Cs       9.43410000      22.01290000       3.14470000
Cs       9.43410000      22.01290000       9.43410000
Cs       9.43410000      22.01290000      15.72350000
Cs       9.43410000      22.01290000      22.01290000
Cs       9.43410000      22.01290000      28.30230000
Cs       9.43410000      22.01290000      34.59170000
Cs       9.43410000      22.01290000      40.88110000
Cs       9.43410000      22.01290000      47.17050000
Cs       9.43410000      22.01290000      53.45990000
Cs       9.43410000      22.01290000      59.74930000
Cs       9.43410000      22.01290000      66.03870000
Cs       9.43410000      22.01290000      72.32810000
Cs       9.43410000      28.30230000       3.14470000
Cs       9.43410000      28.30230000       9.43410000
Cs       9.43410000      28.30230000      15.72350000
Cs       9.43410000      28.30230000      22.01290000
Cs       9.43410000      28.30230000      28.30230000
Cs       9.43410000      28.30230000      34.59170000
Cs       9.43410000      28.30230000      40.88110000
Cs       9.43410000      28.30230000      47.17050000
Cs       9.43410000      28.30230000      53.45990000
Cs       9.43410000      28.30230000      59.74930000
Cs       9.43410000      28.30230000      66.03870000
Cs       9.43410000      28.30230000      72.32810000
Cs       9.43410000      34.59170000       3.14470000
Cs       9.43410000      34.59170000       9.43410000
Cs       9.43410000      34.59170000      15.72350000
Cs       9.43410000      34.59170000      22.01290000
Cs       9.43410000      34.59170000      28.30230000
Cs       9.43410000      34.59170000      34.59170000
Cs       9.43410000      34.59170000      40.88110000
Cs       9.43410000      34.59170000      47.17050000
Cs       9.43410000      34.59170000      53.45990000
Cs       9.43410000      34.59170000      59.74930000
Cs       9.43410000      34.59170000      66.03870000
Cs       9.43410000      34.59170000      72.32810000
Cs       9.43410000      40.88110000       3.14470000
Cs       9.43410000      40.88110000       9.43410000
Cs       9.43410000      40.88110000      15.72350000
Cs       9.43410000      40.88110000      22.01290000
Cs       9.43410000      40.88110000      28.30230000
Cs       9.43410000      40.88110000      34.59170000
Cs       9.43410000      40.88110000      40.88110000
Cs       9.43410000      40.88110000      47.17050000
Cs       9.43410000      40.88110000      53.45990000
Cs       9.43410000      40.88110000      59.74930000
Cs       9.43410000      40.88110000      66.03870000
Cs       9.43410000      40.88110000      72.32810000
Cs       9.43410000      47.17050000       3.14470000
Cs       9.43410000      47.17050000       9.43410000
Cs       9.43410000      47.17050000      15.72350000
Cs       9.43410000      47.17050000      22.01290000
Cs       9.43410000      47.17050000      28.30230000
Cs       9.43410000      47.17050000      34.59170000
Cs       9.43410000      47.17050000      40.88110000
Cs       9.43410000      47.17050000      47.17050000
Cs       9.43410000      47.17050000      53.45990000
Cs       9.43410000      47.17050000      59.74930000
Cs       9.43410000      47.17050000      66.03870000
Cs       9.43410000      47.17050000      72.32810000
Cs       9.43410000      53.45990000       3.14470000
Cs       9.43410000      53.45990000       9.43410000
Cs       9.43410000      53.45990000      15.72350000
Cs       9.43410000      53.45990000      22.01290000
Cs       9.43410000      53.45990000      28.30230000
Cs       9.43410000      53.45990000      34.59170000
Cs       9.43410000      53.45990000      40.88110000
Cs       9.43410000      53.45990000      47.17050000
Cs       9.43410000      53.45990000      53.45990000
Cs       9.43410000      53.45990000      59.74930000
Cs       9.43410000      53.45990000      66.03870000
Cs       9.43410000      53.45990000      72.32810000
Cs       9.43410000      59.74930000       3.14470000
Cs       9.43410000      59.74930000       9.43410000
Cs       9.43410000      59.74930000      15.72350000
Cs       9.43410000      59.74930000      22.01290000
Cs       9.43410000      59.74930000      28.30230000
Cs       9.43410000      59.74930000      34.59170000
Cs       9.43410000      59.74930000      40.88110000
Cs       9.43410000      59.74930000      47.17050000
Cs       9.43410000      59.74930000      53.45990000
Cs       9.43410000      59.74930000      59.74930000
Cs       9.43410000      59.74930000      66.03870000
Cs       9.43410000      59.74930000      72.32810000
Cs       9.43410000      66.03870000       3.14470000
Cs       9.43410000      66.03870000       9.43410000
Cs       9.43410000      66.03870000      15.72350000
Cs       9.43410000      66.03870000      22.01290000
Cs       9.43410000      66.03870000      28.30230000
Cs       9.43410000      66.03870000      34.59170000
Cs       9.43410000      66.03870000      40.88110000
Cs       9.43410000      66.03870000      47.17050000
Cs       9.43410000      66.03870000      53.45990000
Cs       9.43410000      66.03870000      59.74930000
Cs       9.43410000      66.03870000      66.03870000
Cs       9.43410000      66.03870000      72.32810000
Cs       9.43410000      72.32810000       3.14470000
Cs       9.43410000      72.32810000       9.43410000
Cs       9.43410000      72.32810000      15.72350000
Cs       9.43410000      72.32810000      22.01290000
Cs       9.43410000      72.32810000      28.30230000
Cs       9.43410000      72.32810000      34.59170000
Cs       9.43410000      72.32810000      40.88110000
Cs       9.43410000      72.32810000      47.17050000
Cs       9.43410000      72.32810000      53.45990000
Cs       9.43410000      72.32810000      59.74930000
Cs       9.43410000      72.32810000      66.03870000
Cs       9.43410000      72.32810000      72.32810000
Cs      15.72350000       3.14470000       3.14470000
Cs      15.72350000       3.14470000       9.43410000
Cs      15.72350000       3.14470000      15.72350000
Cs      15.72350000       3.14470000      22.01290000
Cs      15.72350000       3.14470000      28.30230000
Cs      15.72350000       3.14470000      34.59170000
Cs      15.72350000       3.14470000      40.88110000
Cs      15.72350000       3.14470000      47.17050000
Cs      15.72350000       3.14470000      53.45990000
Cs      15.72350000       3.14470000      59.74930000
Cs      15.72350000       3.14470000      66.03870000
Cs      15.72350000       3.14470000      72.32810000
Cs      15.72350000       9.43410000       3.14470000
Cs      15.72350000       9.43410000       9.43410000
Cs      15.72350000       9.43410000      15.72350000
Cs      15.72350000       9.43410000      22.01290000
Cs      15.72350000       9.43410000      28.30230000
Cs      15.72350000       9.43410000      34.59170000
Cs      15.72350000       9.43410000      40.88110000
Cs      15.72350000       9.43410000      47.17050000
Cs      15.72350000       9.43410000      53.45990000
Cs      15.72350000       9.43410000      59.74930000
Cs      15.72350000       9.43410000      66.03870000
Cs      15.72350000       9.43410000      72.32810000
Cs      15.72350000      15.72350000       3.14470000
Cs      15.72350000      15.72350000       9.43410000
Cs      15.72350000      15.72350000      15.72350000
Cs      15.72350000      15.72350000      22.01290000
Cs      15.72350000      15.72350000      28.30230000
Cs      15.72350000      15.72350000      34.59170000
Cs      15.72350000      15.72350000      40.88110000
Cs      15.72350000      15.72350000      47.17050000
Cs      15.72350000      15.72350000      53.45990000
Cs      15.72350000      15.72350000      59.74930000
Cs      15.72350000      15.72350000      66.03870000
Cs      15.72350000      15.72350000      72.32810000
Cs      15.72350000      22.01290000       3.14470000
Cs      15.72350000      22.01290000       9.43410000
Cs      15.72350000      22.01290000      15.72350000
Cs      15.72350000      22.01290000      22.01290000
Cs      15.72350000      22.01290000      28.30230000
Cs      15.72350000      22.01290000      34.59170000
Cs      15.72350000      22.01290000      40.88110000
Cs      15.72350000      22.01290000      47.17050000
Cs      15.72350000      22.01290000      53.45990000
Cs      15.72350000      22.01290000      59.74930000
Cs      15.72350000      22.01290000      66.03870000
Cs      15.72350000      22.01290000      72.32810000
Cs      15.72350000      28.30230000       3.14470000
Cs      15.72350000      28.30230000       9.43410000
Cs      15.72350000      28.30230000      15.72350000
Cs      15.72350000      28.30230000      22.01290000
Cs      15.72350000      28.30230000      28.30230000
Cs      15.72350000      28.30230000      34.59170000
Cs      15.72350000      28.30230000      40.88110000
Cs      15.72350000      28.30230000      47.17050000
Cs      15.72350000      28.30230000      53.45990000
Cs      15.72350000      28.30230000      59.74930000
Cs      15.72350000      28.30230000      66.03870000
Cs      15.72350000      28.30230000      72.32810000
Cs      15.72350000      34.59170000       3.14470000
Cs      15.72350000      34.59170000       9.43410000
Cs      15.72350000      34.59170000      15.72350000
Cs      15.72350000      34.59170000      22.01290000
Cs      15.72350000      34.59170000      28.30230000
Cs      15.72350000      34.59170000      34.59170000
Cs      15.72350000      34.59170000      40.88110000
Cs      15.72350000      34.59170000      47.17050000
Cs      15.72350000      34.59170000      53.45990000
Cs      15.72350000      34.59170000      59.74930000
Cs      15.72350000      34.59170000      66.03870000
Cs      15.72350000      34.59170000      72.32810000
Cs      15.72350000      40.88110000       3.14470000
Cs      15.72350000      40.88110000       9.43410000
Cs      15.72350000      40.88110000      15.72350000
Cs      15.72350000      40.88110000      22.01290000
Cs      15.72350000      40.88110000      28.30230000
Cs      15.72350000      40.88110000      34.59170000
Cs      15.72350000      40.88110000      40.88110000
Cs      15.72350000      40.88110000      47.17050000
Cs      15.72350000      40.88110000      53.45990000
Cs      15.72350000      40.88110000      59.74930000
Cs      15.72350000      40.88110000      66.03870000
Cs      15.72350000      40.88110000      72.32810000
Cs      15.72350000      47.17050000       3.14470000
Cs      15.72350000      47.17050000       9.43410000
Cs      15.72350000      47.17050000      15.72350000
Cs      15.72350000      47.17050000      22.01290000
Cs      15.72350000      47.17050000      28.30230000
Cs      15.72350000      47.17050000      34.59170000
Cs      15.72350000      47.17050000      40.88110000
Cs      15.72350000      47.17050000      47.17050000
Cs      15.72350000      47.17050000      53.45990000
Cs      15.72350000      47.17050000      59.74930000
Cs      15.72350000      47.17050000      66.03870000
Cs      15.72350000      47.17050000      72.32810000
Cs      15.72350000      53.45990000       3.14470000
Cs      15.72350000      53.45990000       9.43410000
Cs      15.72350000      53.45990000      15.72350000
Cs      15.72350000      53.45990000      22.01290000
Cs      15.72350000      53.45990000      28.30230000
Cs      15.72350000      53.45990000      34.59170000
Cs      15.72350000      53.45990000      40.88110000
Cs      15.72350000      53.45990000      47.17050000
Cs      15.72350000      53.45990000      53.45990000
Cs      15.72350000      53.45990000      59.74930000
Cs      15.72350000      53.45990000      66.03870000
Cs      15.72350000      53.45990000      72.32810000
Cs      15.72350000      59.74930000       3.14470000
Cs      15.72350000      59.74930000       9.43410000
Cs      15.72350000      59.74930000      15.72350000
Cs      15.72350000      59.74930000      22.01290000
Cs      15.72350000      59.74930000      28.30230000
Cs      15.72350000      59.74930000      34.59170000
Cs      15.72350000      59.74930000      40.88110000
Cs      15.72350000      59.74930000      47.17050000
Cs      15.72350000      59.74930000      53.45990000
Cs      15.72350000      59.74930000      59.74930000
Cs      15.72350000      59.74930000      66.03870000
Cs      15.72350000      59.74930000      72.32810000
Cs      15.72350000      66.03870000       3.14470000
Cs      15.72350000      66.03870000       9.43410000
Cs      15.72350000      66.03870000      15.72350000
Cs      15.72350000      66.03870000      22.01290000
Cs      15.72350000      66.03870000      28.30230000
Cs      15.72350000      66.03870000      34.59170000
Cs      15.72350000      66.03870000      40.88110000
Cs      15.72350000      66.03870000      47.17050000
Cs      15.72350000      66.03870000      53.45990000
Cs      15.72350000      66.03870000      59.74930000
Cs      15.72350000      66.03870000      66.03870000
Cs      15.72350000      66.03870000      72.32810000
Cs      15.72350000      72.32810000       3.14470000
Cs      15.72350000      72.32810000       9.43410000
Cs      15.72350000      72.32810000      15.72350000
Cs      15.72350000      72.32810000      22.01290000
Cs      15.72350000      72.32810000      28.30230000
Cs      15.72350000      72.32810000      34.59170000
Cs      15.72350000      72.32810000      40.88110000
Cs      15.72350000      72.32810000      47.17050000
Cs      15.72350000      72.32810000      53.45990000
Cs      15.72350000      72.32810000      59.74930000
Cs      15.72350000      72.32810000      66.03870000
Cs      15.72350000      72.32810000      72.32810000
Cs      22.01290000       3.14470000       3.14470000
Cs      22.01290000       3.14470000       9.43410000
Cs      22.01290000       3.14470000      15.72350000
Cs      22.01290000       3.14470000      22.01290000
Cs      22.01290000       3.14470000      28.30230000
Cs      22.01290000       3.14470000      34.59170000
Cs      22.01290000       3.14470000      40.88110000
Cs      22.01290000       3.14470000      47.17050000
Cs      22.01290000       3.14470000      53.45990000
Cs      22.01290000       3.14470000      59.74930000
Cs      22.01290000       3.14470000      66.03870000
Cs      22.01290000       3.14470000      72.32810000
Cs      22.01290000       9.43410000       3.14470000
Cs      22.01290000       9.43410000       9.43410000
Cs      22.01290000       9.43410000      15.72350000
Cs      22.01290000       9.43410000      22.01290000
Cs      22.01290000       9.43410000      28.30230000
Cs      22.01290000       9.43410000      34.59170000
Cs      22.01290000       9.43410000      40.88110000
Cs      22.01290000       9.43410000      47.17050000
Cs      22.01290000       9.43410000      53.45990000
Cs      22.01290000       9.43410000      59.74930000
Cs      22.01290000       9.43410000      66.03870000
Cs      22.01290000       9.43410000      72.32810000
Cs      22.01290000      15.72350000       3.14470000
Cs      22.01290000      15.72350000       9.43410000
Cs      22.01290000      15.72350000      15.72350000
Cs      22.01290000      15.72350000      22.01290000
Cs      22.01290000      15.72350000      28.30230000
Cs      22.01290000      15.72350000      34.59170000
Cs      22.01290000      15.72350000      40.88110000
Cs      22.01290000      15.72350000      47.17050000
Cs      22.01290000      15.72350000      53.45990000
Cs      22.01290000      15.72350000      59.74930000
Cs      22.01290000      15.72350000      66.03870000
Cs      22.01290000      15.72350000      72.32810000
Cs      22.01290000      22.01290000       3.14470000
Cs      22.01290000      22.01290000       9.43410000
Cs      22.01290000      22.01290000      15.72350000
Cs      22.01290000      22.01290000      22.01290000
Cs      22.01290000      22.01290000      28.30230000
Cs      22.01290000      22.01290000      34.59170000
Cs      22.01290000      22.01290000      40.88110000
Cs      22.01290000      22.01290000      47.17050000
Cs      22.01290000      22.01290000      53.45990000
Cs      22.01290000      22.01290000      59.74930000
Cs      22.01290000      22.01290000      66.03870000
Cs      22.01290000      22.01290000      72.32810000
Cs      22.01290000      28.30230000       3.14470000
Cs      22.01290000      28.30230000       9.43410000
Cs      22.01290000      28.30230000      15.72350000
Cs      22.01290000      28.30230000      22.01290000
Cs      22.01290000      28.30230000      28.30230000
Cs      22.01290000      28.30230000      34.59170000
Cs      22.01290000      28.30230000      40.88110000
Cs      22.01290000      28.30230000      47.17050000
Cs      22.01290000      28.30230000      53.45990000
Cs      22.01290000      28.30230000      59.74930000
Cs      22.01290000      28.30230000      66.03870000
Cs      22.01290000      28.30230000      72.32810000
Cs      22.01290000      34.59170000       3.14470000
Cs      22.01290000      34.59170000       9.43410000
Cs      22.01290000      34.59170000      15.72350000
Cs      22.01290000      34.59170000      22.01290000
Cs      22.01290000      34.59170000      28.30230000
Cs      22.01290000      34.59170000      34.59170000
Cs      22.01290000      34.59170000      40.88110000
Cs      22.01290000      34.59170000      47.17050000
Cs      22.01290000      34.59170000      53.45990000
Cs      22.01290000      34.59170000      59.74930000
Cs      22.01290000      34.59170000      66.03870000
Cs      22.01290000      34.59170000      72.32810000
Cs      22.01290000      40.88110000       3.14470000
Cs      22.01290000      40.88110000       9.43410000
Cs      22.01290000      40.88110000      15.72350000
Cs      22.01290000      40.88110000      22.01290000
Cs      22.01290000      40.88110000      28.30230000
Cs      22.01290000      40.88110000      34.59170000
Cs      22.01290000      40.88110000      40.88110000
Cs      22.01290000      40.88110000      47.17050000
Cs      22.01290000      40.88110000      53.45990000
Cs      22.01290000      40.88110000      59.74930000
Cs      22.01290000      40.88110000      66.03870000
Cs      22.01290000      40.88110000      72.32810000
Cs      22.01290000      47.17050000       3.14470000
Cs      22.01290000      47.17050000       9.43410000
Cs      22.01290000      47.17050000      15.72350000
Cs      22.01290000      47.17050000      22.01290000
Cs      22.01290000      47.17050000      28.30230000
Cs      22.01290000      47.17050000      34.59170000
Cs      22.01290000      47.17050000      40.88110000
Cs      22.01290000      47.17050000      47.17050000
Cs      22.01290000      47.17050000      53.45990000
Cs      22.01290000      47.17050000      59.74930000
Cs      22.01290000      47.17050000      66.03870000
Cs      22.01290000      47.17050000      72.32810000
Cs      22.01290000      53.45990000       3.14470000
Cs      22.01290000      53.45990000       9.43410000
Cs      22.01290000      53.45990000      15.72350000
Cs      22.01290000      53.45990000      22.01290000
Cs      22.01290000      53.45990000      28.30230000
Cs      22.01290000      53.45990000      34.59170000
Cs      22.01290000      53.45990000      40.88110000
Cs      22.01290000      53.45990000      47.17050000
Cs      22.01290000      53.45990000      53.45990000
Cs      22.01290000      53.45990000      59.74930000
Cs      22.01290000      53.45990000      66.03870000
Cs      22.01290000      53.45990000      72.32810000
Cs      22.01290000      59.74930000       3.14470000
Cs      22.01290000      59.74930000       9.43410000
Cs      22.01290000      59.74930000      15.72350000
Cs      22.01290000      59.74930000      22.01290000
Cs      22.01290000      59.74930000      28.30230000
Cs      22.01290000      59.74930000      34.59170000
Cs      22.01290000      59.74930000      40.88110000
Cs      22.01290000      59.74930000      47.17050000
Cs      22.01290000      59.74930000      53.45990000
Cs      22.01290000      59.74930000      59.74930000
Cs      22.01290000      59.74930000      66.03870000
Cs      22.01290000      59.74930000      72.32810000
Cs      22.01290000      66.03870000       3.14470000
Cs      22.01290000      66.03870000       9.43410000
Cs      22.01290000      66.03870000      15.72350000
Cs      22.01290000      66.03870000      22.01290000
Cs      22.01290000      66.03870000      28.30230000
Cs      22.01290000      66.03870000      34.59170000
Cs      22.01290000      66.03870000      40.88110000
Cs      22.01290000      66.03870000      47.17050000
Cs      22.01290000      66.03870000      53.45990000
Cs      22.01290000      66.03870000      59.74930000
Cs      22.01290000      66.03870000      66.03870000
Cs      22.01290000      66.03870000      72.32810000
Cs      22.01290000      72.32810000       3.14470000
Cs      22.01290000      72.32810000       9.43410000
Cs      22.01290000      72.32810000      15.72350000
Cs      22.01290000      72.32810000      22.01290000
Cs      22.01290000      72.32810000      28.30230000
Cs      22.01290000      72.32810000      34.59170000
Cs      22.01290000      72.32810000      40.88110000
Cs      22.01290000      72.32810000      47.17050000
Cs      22.01290000      72.32810000      53.45990000
Cs      22.01290000      72.32810000      59.74930000
Cs      22.01290000      72.32810000      66.03870000
Cs      22.01290000      72.32810000      72.32810000
Cs      28.30230000       3.14470000       3.14470000
Cs      28.30230000       3.14470000       9.43410000
Cs      28.30230000       3.14470000      15.72350000
Cs      28.30230000       3.14470000      22.01290000
Cs      28.30230000       3.14470000      28.30230000
Cs      28.30230000       3.14470000      34.59170000
Cs      28.30230000       3.14470000      40.88110000
Cs      28.30230000       3.14470000      47.17050000
Cs      28.30230000       3.14470000      53.45990000
Cs      28.30230000       3.14470000      59.74930000
Cs      28.30230000       3.14470000      66.03870000
Cs      28.30230000       3.14470000      72.32810000
Cs      28.30230000       9.43410000       3.14470000
Cs      28.30230000       9.43410000       9.43410000
Cs      28.30230000       9.43410000      15.72350000
Cs      28.30230000       9.43410000      22.01290000
Cs      28.30230000       9.43410000      28.30230000
Cs      28.30230000       9.43410000      34.59170000
Cs      28.30230000       9.43410000      40.88110000
Cs      28.30230000       9.43410000      47.17050000
Cs      28.30230000       9.43410000      53.45990000
Cs      28.30230000       9.43410000      59.74930000
Cs      28.30230000       9.43410000      66.03870000
Cs      28.30230000       9.43410000      72.32810000
Cs      28.30230000      15.72350000       3.14470000
Cs      28.30230000      15.72350000       9.43410000
Cs      28.30230000      15.72350000      15.72350000
Cs      28.30230000      15.72350000      22.01290000
Cs      28.30230000      15.72350000      28.30230000
Cs      28.30230000      15.72350000      34.59170000
Cs      28.30230000      15.72350000      40.88110000
Cs      28.30230000      15.72350000      47.17050000
Cs      28.30230000      15.72350000      53.45990000
Cs      28.30230000      15.72350000      59.74930000
Cs      28.30230000      15.72350000      66.03870000
Cs      28.30230000      15.72350000      72.32810000
Cs      28.30230000      22.01290000       3.14470000
Cs      28.30230000      22.01290000       9.43410000
Cs      28.30230000      22.01290000      15.72350000
Cs      28.30230000      22.01290000      22.01290000
Cs      28.30230000      22.01290000      28.30230000
Cs      28.30230000      22.01290000      34.59170000
Cs      28.30230000      22.01290000      40.88110000
Cs      28.30230000      22.01290000      47.17050000
Cs      28.30230000      22.01290000      53.45990000
Cs      28.30230000      22.01290000      59.74930000
Cs      28.30230000      22.01290000      66.03870000
Cs      28.30230000      22.01290000      72.32810000
Cs      28.30230000      28.30230000       3.14470000
Cs      28.30230000      28.30230000       9.43410000
Cs      28.30230000      28.30230000      15.72350000
Cs      28.30230000      28.30230000      22.01290000
Cs      28.30230000      28.30230000      28.30230000
Cs      28.30230000      28.30230000      34.59170000
Cs      28.30230000      28.30230000      40.88110000
Cs      28.30230000      28.30230000      47.17050000
Cs      28.30230000      28.30230000      53.45990000
Cs      28.30230000      28.30230000      59.74930000
Cs      28.30230000      28.30230000      66.03870000
Cs      28.30230000      28.30230000      72.32810000
Cs      28.30230000      34.59170000       3.14470000
Cs      28.30230000      34.59170000       9.43410000
Cs      28.30230000      34.59170000      15.72350000
Cs      28.30230000      34.59170000      22.01290000
Cs      28.30230000      34.59170000      28.30230000
Cs      28.30230000      34.59170000      34.59170000
Cs      28.30230000      34.59170000      40.88110000
Cs      28.30230000      34.59170000      47.17050000
Cs      28.30230000      34.59170000      53.45990000
Cs      28.30230000      34.59170000      59.74930000
Cs      28.30230000      34.59170000      66.03870000
Cs      28.30230000      34.59170000      72.32810000
Cs      28.30230000      40.88110000       3.14470000
Cs      28.30230000      40.88110000       9.43410000
Cs      28.30230000      40.88110000      15.72350000
Cs      28.30230000      40.88110000      22.01290000
Cs      28.30230000      40.88110000      28.30230000
Cs      28.30230000      40.88110000      34.59170000
Cs      28.30230000      40.88110000      40.88110000
Cs      28.30230000      40.88110000      47.17050000
Cs      28.30230000      40.88110000      53.45990000
Cs      28.30230000      40.88110000      59.74930000
Cs      28.30230000      40.88110000      66.03870000
Cs      28.30230000      40.88110000      72.32810000
Cs      28.30230000      47.17050000       3.14470000
Cs      28.30230000      47.17050000       9.43410000
Cs      28.30230000      47.17050000      15.72350000
Cs      28.30230000      47.17050000      22.01290000
Cs      28.30230000      47.17050000      28.30230000
Cs      28.30230000      47.17050000      34.59170000
Cs      28.30230000      47.17050000      40.88110000
Cs      28.30230000      47.17050000      47.17050000
Cs      28.30230000      47.17050000      53.45990000
Cs      28.30230000      47.17050000      59.74930000
Cs      28.30230000      47.17050000      66.03870000
Cs      28.30230000      47.17050000      72.32810000
Cs      28.30230000      53.45990000       3.14470000
Cs      28.30230000      53.45990000       9.43410000
Cs      28.30230000      53.45990000      15.72350000
Cs      28.30230000      53.45990000      22.01290000
Cs      28.30230000      53.45990000      28.30230000
Cs      28.30230000      53.45990000      34.59170000
Cs      28.30230000      53.45990000      40.88110000
Cs      28.30230000      53.45990000      47.17050000
Cs      28.30230000      53.45990000      53.45990000
Cs      28.30230000      53.45990000      59.74930000
Cs      28.30230000      53.45990000      66.03870000
Cs      28.30230000      53.45990000      72.32810000
Cs      28.30230000      59.74930000       3.14470000
Cs      28.30230000      59.74930000       9.43410000
Cs      28.30230000      59.74930000      15.72350000
Cs      28.30230000      59.74930000      22.01290000
Cs      28.30230000      59.74930000      28.30230000
Cs      28.30230000      59.74930000      34.59170000
Cs      28.30230000      59.74930000      40.88110000
Cs      28.30230000      59.74930000      47.17050000
Cs      28.30230000      59.74930000      53.45990000
Cs      28.30230000      59.74930000      59.74930000
Cs      28.30230000      59.74930000      66.03870000
Cs      28.30230000      59.74930000      72.32810000
Cs      28.30230000      66.03870000       3.14470000
Cs      28.30230000      66.03870000       9.43410000
Cs      28.30230000      66.03870000      15.72350000
Cs      28.30230000      66.03870000      22.01290000
Cs      28.30230000      66.03870000      28.30230000
Cs      28.30230000      66.03870000      34.59170000
Cs      28.30230000      66.03870000      40.88110000
Cs      28.30230000      66.03870000      47.17050000
Cs      28.30230000      66.03870000      53.45990000
Cs      28.30230000      66.03870000      59.74930000
Cs      28.30230000      66.03870000      66.03870000
Cs      28.30230000      66.03870000      72.32810000
Cs      28.30230000      72.32810000       3.14470000
Cs      28.30230000      72.32810000       9.43410000
Cs      28.30230000      72.32810000      15.72350000
Cs      28.30230000      72.32810000      22.01290000
Cs      28.30230000      72.32810000      28.30230000
Cs      28.30230000      72.32810000      34.59170000
Cs      28.30230000      72.32810000      40.88110000
Cs      28.30230000      72.32810000      47.17050000
Cs      28.30230000      72.32810000      53.45990000
Cs      28.30230000      72.32810000      59.74930000
Cs      28.30230000      72.32810000      66.03870000
Cs      28.30230000      72.32810000      72.32810000
Cs      34.59170000       3.14470000       3.14470000
Cs      34.59170000       3.14470000       9.43410000
Cs      34.59170000       3.14470000      15.72350000
Cs      34.59170000       3.14470000      22.01290000
Cs      34.59170000       3.14470000      28.30230000
Cs      34.59170000       3.14470000      34.59170000
Cs      34.59170000       3.14470000      40.88110000
Cs      34.59170000       3.14470000      47.17050000
Cs      34.59170000       3.14470000      53.45990000
Cs      34.59170000       3.14470000      59.74930000
Cs      34.59170000       3.14470000      66.03870000
Cs      34.59170000       3.14470000      72.32810000
Cs      34.59170000       9.43410000       3.14470000
Cs      34.59170000       9.43410000       9.43410000
Cs      34.59170000       9.43410000      15.72350000
Cs      34.59170000       9.43410000      22.01290000
Cs      34.59170000       9.43410000      28.30230000
Cs      34.59170000       9.43410000      34.59170000
Cs      34.59170000       9.43410000      40.88110000
Cs      34.59170000       9.43410000      47.17050000
Cs      34.59170000       9.43410000      53.45990000
Cs      34.59170000       9.43410000      59.74930000
Cs      34.59170000       9.43410000      66.03870000
Cs      34.59170000       9.43410000      72.32810000
Cs      34.59170000      15.72350000       3.14470000
Cs      34.59170000      15.72350000       9.43410000
Cs      34.59170000      15.72350000      15.72350000
Cs      34.59170000      15.72350000      22.01290000
Cs      34.59170000      15.72350000      28.30230000
Cs      34.59170000      15.72350000      34.59170000
Cs      34.59170000      15.72350000      40.88110000
Cs      34.59170000      15.72350000      47.17050000
Cs      34.59170000      15.72350000      53.45990000
Cs      34.59170000      15.72350000      59.74930000
Cs      34.59170000      15.72350000      66.03870000
Cs      34.59170000      15.72350000      72.32810000
Cs      34.59170000      22.01290000       3.14470000
Cs      34.59170000      22.01290000       9.43410000
Cs      34.59170000      22.01290000      15.72350000
Cs      34.59170000      22.01290000      22.01290000
Cs      34.59170000      22.01290000      28.30230000
Cs      34.59170000      22.01290000      34.59170000
Cs      34.59170000      22.01290000      40.88110000
Cs      34.59170000      22.01290000      47.17050000
Cs      34.59170000      22.01290000      53.45990000
Cs      34.59170000      22.01290000      59.74930000
Cs      34.59170000      22.01290000      66.03870000
Cs      34.59170000      22.01290000      72.32810000
Cs      34.59170000      28.30230000       3.14470000
Cs      34.59170000      28.30230000       9.43410000
Cs      34.59170000      28.30230000      15.72350000
Cs      34.59170000      28.30230000      22.01290000
Cs      34.59170000      28.30230000      28.30230000
Cs      34.59170000      28.30230000      34.59170000
Cs      34.59170000      28.30230000      40.88110000
Cs      34.59170000      28.30230000      47.17050000
Cs      34.59170000      28.30230000      53.45990000
Cs      34.59170000      28.30230000      59.74930000
Cs      34.59170000      28.30230000      66.03870000
Cs      34.59170000      28.30230000      72.32810000
Cs      34.59170000      34.59170000       3.14470000
Cs      34.59170000      34.59170000       9.43410000
Cs      34.59170000      34.59170000      15.72350000
Cs      34.59170000      34.59170000      22.01290000
Cs      34.59170000      34.59170000      28.30230000
Cs      34.59170000      34.59170000      34.59170000
Cs      34.59170000      34.59170000      40.88110000
Cs      34.59170000      34.59170000      47.17050000
Cs      34.59170000      34.59170000      53.45990000
Cs      34.59170000      34.59170000      59.74930000
Cs      34.59170000      34.59170000      66.03870000
Cs      34.59170000      34.59170000      72.32810000
Cs      34.59170000      40.88110000       3.14470000
Cs      34.59170000      40.88110000       9.43410000
Cs      34.59170000      40.88110000      15.72350000
Cs      34.59170000      40.88110000      22.01290000
Cs      34.59170000      40.88110000      28.30230000
Cs      34.59170000      40.88110000      34.59170000
Cs      34.59170000      40.88110000      40.88110000
Cs      34.59170000      40.88110000      47.17050000
Cs      34.59170000      40.88110000      53.45990000
Cs      34.59170000      40.88110000      59.74930000
Cs      34.59170000      40.88110000      66.03870000
Cs      34.59170000      40.88110000      72.32810000
Cs      34.59170000      47.17050000       3.14470000
Cs      34.59170000      47.17050000       9.43410000
Cs      34.59170000      47.17050000      15.72350000
Cs      34.59170000      47.17050000      22.01290000
Cs      34.59170000      47.17050000      28.30230000
Cs      34.59170000      47.17050000      34.59170000
Cs      34.59170000      47.17050000      40.88110000
Cs      34.59170000      47.17050000      47.17050000
Cs      34.59170000      47.17050000      53.45990000
Cs      34.59170000      47.17050000      59.74930000
Cs      34.59170000      47.17050000      66.03870000
Cs      34.59170000      47.17050000      72.32810000
Cs      34.59170000      53.45990000       3.14470000
Cs      34.59170000      53.45990000       9.43410000
Cs      34.59170000      53.45990000      15.72350000
Cs      34.59170000      53.45990000      22.01290000
Cs      34.59170000      53.45990000      28.30230000
Cs      34.59170000      53.45990000      34.59170000
Cs      34.59170000      53.45990000      40.88110000
Cs      34.59170000      53.45990000      47.17050000
Cs      34.59170000      53.45990000      53.45990000
Cs      34.59170000      53.45990000      59.74930000
Cs      34.59170000      53.45990000      66.03870000
Cs      34.59170000      53.45990000      72.32810000
Cs      34.59170000      59.74930000       3.14470000
Cs      34.59170000      59.74930000       9.43410000
Cs      34.59170000      59.74930000      15.72350000
Cs      34.59170000      59.74930000      22.01290000
Cs      34.59170000      59.74930000      28.30230000
Cs      34.59170000      59.74930000      34.59170000
Cs      34.59170000      59.74930000      40.88110000
Cs      34.59170000      59.74930000      47.17050000
Cs      34.59170000      59.74930000      53.45990000
Cs      34.59170000      59.74930000      59.74930000
Cs      34.59170000      59.74930000      66.03870000
Cs      34.59170000      59.74930000      72.32810000
Cs      34.59170000      66.03870000       3.14470000
Cs      34.59170000      66.03870000       9.43410000
Cs      34.59170000      66.03870000      15.72350000
Cs      34.59170000      66.03870000      22.01290000
Cs      34.59170000      66.03870000      28.30230000
Cs      34.59170000      66.03870000      34.59170000
Cs      34.59170000      66.03870000      40.88110000
Cs      34.59170000      66.03870000      47.17050000
Cs      34.59170000      66.03870000      53.45990000
Cs      34.59170000      66.03870000      59.74930000
Cs      34.59170000      66.03870000      66.03870000
Cs      34.59170000      66.03870000      72.32810000
Cs      34.59170000      72.32810000       3.14470000
Cs      34.59170000      72.32810000       9.43410000
Cs      34.59170000      72.32810000      15.72350000
Cs      34.59170000      72.32810000      22.01290000
Cs      34.59170000      72.32810000      28.30230000
Cs      34.59170000      72.32810000      34.59170000
Cs      34.59170000      72.32810000      40.88110000
Cs      34.59170000      72.32810000      47.17050000
Cs      34.59170000      72.32810000      53.45990000
Cs      34.59170000      72.32810000      59.74930000
Cs      34.59170000      72.32810000      66.03870000
Cs      34.59170000      72.32810000      72.32810000
Cs      40.88110000       3.14470000       3.14470000
Cs      40.88110000       3.14470000       9.43410000
Cs      40.88110000       3.14470000      15.72350000
Cs      40.88110000       3.14470000      22.01290000
Cs      40.88110000       3.14470000      28.30230000
Cs      40.88110000       3.14470000      34.59170000
Cs      40.88110000       3.14470000      40.88110000
Cs      40.88110000       3.14470000      47.17050000
Cs      40.88110000       3.14470000      53.45990000
Cs      40.88110000       3.14470000      59.74930000
Cs      40.88110000       3.14470000      66.03870000
Cs      40.88110000       3.14470000      72.32810000
Cs      40.88110000       9.43410000       3.14470000
Cs      40.88110000       9.43410000       9.43410000
Cs      40.88110000       9.43410000      15.72350000
Cs      40.88110000       9.43410000      22.01290000
Cs      40.88110000       9.43410000      28.30230000
Cs      40.88110000       9.43410000      34.59170000
Cs      40.88110000       9.43410000      40.88110000
Cs      40.88110000       9.43410000      47.17050000
Cs      40.88110000       9.43410000      53.45990000
Cs      40.88110000       9.43410000      59.74930000
Cs      40.88110000       9.43410000      66.03870000
Cs      40.88110000       9.43410000      72.32810000
Cs      40.88110000      15.72350000       3.14470000
Cs      40.88110000      15.72350000       9.43410000
Cs      40.88110000      15.72350000      15.72350000
Cs      40.88110000      15.72350000      22.01290000
Cs      40.88110000      15.72350000      28.30230000
Cs      40.88110000      15.72350000      34.59170000
Cs      40.88110000      15.72350000      40.88110000
Cs      40.88110000      15.72350000      47.17050000
Cs      40.88110000      15.72350000      53.45990000
Cs      40.88110000      15.72350000      59.74930000
Cs      40.88110000      15.72350000      66.03870000
Cs      40.88110000      15.72350000      72.32810000
Cs      40.88110000      22.01290000       3.14470000
Cs      40.88110000      22.01290000       9.43410000
Cs      40.88110000      22.01290000      15.72350000
Cs      40.88110000      22.01290000      22.01290000
Cs      40.88110000      22.01290000      28.30230000
Cs      40.88110000      22.01290000      34.59170000
Cs      40.88110000      22.01290000      40.88110000
Cs      40.88110000      22.01290000      47.17050000
Cs      40.88110000      22.01290000      53.45990000
Cs      40.88110000      22.01290000      59.74930000
Cs      40.88110000      22.01290000      66.03870000
Cs      40.88110000      22.01290000      72.32810000
Cs      40.88110000      28.30230000       3.14470000
Cs      40.88110000      28.30230000       9.43410000
Cs      40.88110000      28.30230000      15.72350000
Cs      40.88110000      28.30230000      22.01290000
Cs      40.88110000      28.30230000      28.30230000
Cs      40.88110000      28.30230000      34.59170000
Cs      40.88110000      28.30230000      40.88110000
Cs      40.88110000      28.30230000      47.17050000
Cs      40.88110000      28.30230000      53.45990000
Cs      40.88110000      28.30230000      59.74930000
Cs      40.88110000      28.30230000      66.03870000
Cs      40.88110000      28.30230000      72.32810000
Cs      40.88110000      34.59170000       3.14470000
Cs      40.88110000      34.59170000       9.43410000
Cs      40.88110000      34.59170000      15.72350000
Cs      40.88110000      34.59170000      22.01290000
Cs      40.88110000      34.59170000      28.30230000
Cs      40.88110000      34.59170000      34.59170000
Cs      40.88110000      34.59170000      40.88110000
Cs      40.88110000      34.59170000      47.17050000
Cs      40.88110000      34.59170000      53.45990000
Cs      40.88110000      34.59170000      59.74930000
Cs      40.88110000      34.59170000      66.03870000
Cs      40.88110000      34.59170000      72.32810000
Cs      40.88110000      40.88110000       3.14470000
Cs      40.88110000      40.88110000       9.43410000
Cs      40.88110000      40.88110000      15.72350000
Cs      40.88110000      40.88110000      22.01290000
Cs      40.88110000      40.88110000      28.30230000
Cs      40.88110000      40.88110000      34.59170000
Cs      40.88110000      40.88110000      40.88110000
Cs      40.88110000      40.88110000      47.17050000
Cs      40.88110000      40.88110000      53.45990000
Cs      40.88110000      40.88110000      59.74930000
Cs      40.88110000      40.88110000      66.03870000
Cs      40.88110000      40.88110000      72.32810000
Cs      40.88110000      47.17050000       3.14470000
Cs      40.88110000      47.17050000       9.43410000
Cs      40.88110000      47.17050000      15.72350000
Cs      40.88110000      47.17050000      22.01290000
Cs      40.88110000      47.17050000      28.30230000
Cs      40.88110000      47.17050000      34.59170000
Cs      40.88110000      47.17050000      40.88110000
Cs      40.88110000      47.17050000      47.17050000
Cs      40.88110000      47.17050000      53.45990000
Cs      40.88110000      47.17050000      59.74930000
Cs      40.88110000      47.17050000      66.03870000
Cs      40.88110000      47.17050000      72.32810000
Cs      40.88110000      53.45990000       3.14470000
Cs      40.88110000      53.45990000       9.43410000
Cs      40.88110000      53.45990000      15.72350000
Cs      40.88110000      53.45990000      22.01290000
Cs      40.88110000      53.45990000      28.30230000
Cs      40.88110000      53.45990000      34.59170000
Cs      40.88110000      53.45990000      40.88110000
Cs      40.88110000      53.45990000      47.17050000
Cs      40.88110000      53.45990000      53.45990000
Cs      40.88110000      53.45990000      59.74930000
Cs      40.88110000      53.45990000      66.03870000
Cs      40.88110000      53.45990000      72.32810000
Cs      40.88110000      59.74930000       3.14470000
Cs      40.88110000      59.74930000       9.43410000
Cs      40.88110000      59.74930000      15.72350000
Cs      40.88110000      59.74930000      22.01290000
Cs      40.88110000      59.74930000      28.30230000
Cs      40.88110000      59.74930000      34.59170000
Cs      40.88110000      59.74930000      40.88110000
Cs      40.88110000      59.74930000      47.17050000
Cs      40.88110000      59.74930000      53.45990000
Cs      40.88110000      59.74930000      59.74930000
Cs      40.88110000      59.74930000      66.03870000
Cs      40.88110000      59.74930000      72.32810000
Cs      40.88110000      66.03870000       3.14470000
Cs      40.88110000      66.03870000       9.43410000
Cs      40.88110000      66.03870000      15.72350000
Cs      40.88110000      66.03870000      22.01290000
Cs      40.88110000      66.03870000      28.30230000
Cs      40.88110000      66.03870000      34.59170000
Cs      40.88110000      66.03870000      40.88110000
Cs      40.88110000      66.03870000      47.17050000
Cs      40.88110000      66.03870000      53.45990000
Cs      40.88110000      66.03870000      59.74930000
Cs      40.88110000      66.03870000      66.03870000
Cs      40.88110000      66.03870000      72.32810000
Cs      40.88110000      72.32810000       3.14470000
Cs      40.88110000      72.32810000       9.43410000
Cs      40.88110000      72.32810000      15.72350000
Cs      40.88110000      72.32810000      22.01290000
Cs      40.88110000      72.32810000      28.30230000
Cs      40.88110000      72.32810000      34.59170000
Cs      40.88110000      72.32810000      40.88110000
Cs      40.88110000      72.32810000      47.17050000
Cs      40.88110000      72.32810000      53.45990000
Cs      40.88110000      72.32810000      59.74930000
Cs      40.88110000      72.32810000      66.03870000
Cs      40.88110000      72.32810000      72.32810000
Cs      47.17050000       3.14470000       3.14470000
Cs      47.17050000       3.14470000       9.43410000
Cs      47.17050000       3.14470000      15.72350000
Cs      47.17050000       3.14470000      22.01290000
Cs      47.17050000       3.14470000      28.30230000
Cs      47.17050000       3.14470000      34.59170000
Cs      47.17050000       3.14470000      40.88110000
Cs      47.17050000       3.14470000      47.17050000
Cs      47.17050000       3.14470000      53.45990000
Cs      47.17050000       3.14470000      59.74930000
Cs      47.17050000       3.14470000      66.03870000
Cs      47.17050000       3.14470000      72.32810000
Cs      47.17050000       9.43410000       3.14470000
Cs      47.17050000       9.43410000       9.43410000
Cs      47.17050000       9.43410000      15.72350000
Cs      47.17050000       9.43410000      22.01290000
Cs      47.17050000       9.43410000      28.30230000
Cs      47.17050000       9.43410000      34.59170000
Cs      47.17050000       9.43410000      40.88110000
Cs      47.17050000       9.43410000      47.17050000
Cs      47.17050000       9.43410000      53.45990000
Cs      47.17050000       9.43410000      59.74930000
Cs      47.17050000       9.43410000      66.03870000
Cs      47.17050000       9.43410000      72.32810000
Cs      47.17050000      15.72350000       3.14470000
Cs      47.17050000      15.72350000       9.43410000
Cs      47.17050000      15.72350000      15.72350000
Cs      47.17050000      15.72350000      22.01290000
Cs      47.17050000      15.72350000      28.30230000
Cs      47.17050000      15.72350000      34.59170000
Cs      47.17050000      15.72350000      40.88110000
Cs      47.17050000      15.72350000      47.17050000
Cs      47.17050000      15.72350000      53.45990000
Cs      47.17050000      15.72350000      59.74930000
Cs      47.17050000      15.72350000      66.03870000
Cs      47.17050000      15.72350000      72.32810000
Cs      47.17050000      22.01290000       3.14470000
Cs      47.17050000      22.01290000       9.43410000
Cs      47.17050000      22.01290000      15.72350000
Cs      47.17050000      22.01290000      22.01290000
Cs      47.17050000      22.01290000      28.30230000
Cs      47.17050000      22.01290000      34.59170000
Cs      47.17050000      22.01290000      40.88110000
Cs      47.17050000      22.01290000      47.17050000
Cs      47.17050000      22.01290000      53.45990000
Cs      47.17050000      22.01290000      59.74930000
Cs      47.17050000      22.01290000      66.03870000
Cs      47.17050000      22.01290000      72.32810000
Cs      47.17050000      28.30230000       3.14470000
Cs      47.17050000      28.30230000       9.43410000
Cs      47.17050000      28.30230000      15.72350000
Cs      47.17050000      28.30230000      22.01290000
Cs      47.17050000      28.30230000      28.30230000
Cs      47.17050000      28.30230000      34.59170000
Cs      47.17050000      28.30230000      40.88110000
Cs      47.17050000      28.30230000      47.17050000
Cs      47.17050000      28.30230000      53.45990000
Cs      47.17050000      28.30230000      59.74930000
Cs      47.17050000      28.30230000      66.03870000
Cs      47.17050000      28.30230000      72.32810000
Cs      47.17050000      34.59170000       3.14470000
Cs      47.17050000      34.59170000       9.43410000
Cs      47.17050000      34.59170000      15.72350000
Cs      47.17050000      34.59170000      22.01290000
Cs      47.17050000      34.59170000      28.30230000
Cs      47.17050000      34.59170000      34.59170000
Cs      47.17050000      34.59170000      40.88110000
Cs      47.17050000      34.59170000      47.17050000
Cs      47.17050000      34.59170000      53.45990000
Cs      47.17050000      34.59170000      59.74930000
Cs      47.17050000      34.59170000      66.03870000
Cs      47.17050000      34.59170000      72.32810000
Cs      47.17050000      40.88110000       3.14470000
Cs      47.17050000      40.88110000       9.43410000
Cs      47.17050000      40.88110000      15.72350000
Cs      47.17050000      40.88110000      22.01290000
Cs      47.17050000      40.88110000      28.30230000
Cs      47.17050000      40.88110000      34.59170000
Cs      47.17050000      40.88110000      40.88110000
Cs      47.17050000      40.88110000      47.17050000
Cs      47.17050000      40.88110000      53.45990000
Cs      47.17050000      40.88110000      59.74930000
Cs      47.17050000      40.88110000      66.03870000
Cs      47.17050000      40.88110000      72.32810000
Cs      47.17050000      47.17050000       3.14470000
Cs      47.17050000      47.17050000       9.43410000
Cs      47.17050000      47.17050000      15.72350000
Cs      47.17050000      47.17050000      22.01290000
Cs      47.17050000      47.17050000      28.30230000
Cs      47.17050000      47.17050000      34.59170000
Cs      47.17050000      47.17050000      40.88110000
Cs      47.17050000      47.17050000      47.17050000
Cs      47.17050000      47.17050000      53.45990000
Cs      47.17050000      47.17050000      59.74930000
Cs      47.17050000      47.17050000      66.03870000
Cs      47.17050000      47.17050000      72.32810000
Cs      47.17050000      53.45990000       3.14470000
Cs      47.17050000      53.45990000       9.43410000
Cs      47.17050000      53.45990000      15.72350000
Cs      47.17050000      53.45990000      22.01290000
Cs      47.17050000      53.45990000      28.30230000
Cs      47.17050000      53.45990000      34.59170000
Cs      47.17050000      53.45990000      40.88110000
Cs      47.17050000      53.45990000      47.17050000
Cs      47.17050000      53.45990000      53.45990000
Cs      47.17050000      53.45990000      59.74930000
Cs      47.17050000      53.45990000      66.03870000
Cs      47.17050000      53.45990000      72.32810000
Cs      47.17050000      59.74930000       3.14470000
Cs      47.17050000      59.74930000       9.43410000
Cs      47.17050000      59.74930000      15.72350000
Cs      47.17050000      59.74930000      22.01290000
Cs      47.17050000      59.74930000      28.30230000
Cs      47.17050000      59.74930000      34.59170000
Cs      47.17050000      59.74930000      40.88110000
Cs      47.17050000      59.74930000      47.17050000
Cs      47.17050000      59.74930000      53.45990000
Cs      47.17050000      59.74930000      59.74930000
Cs      47.17050000      59.74930000      66.03870000
Cs      47.17050000      59.74930000      72.32810000
Cs      47.17050000      66.03870000       3.14470000
Cs      47.17050000      66.03870000       9.43410000
Cs      47.17050000      66.03870000      15.72350000
Cs      47.17050000      66.03870000      22.01290000
Cs      47.17050000      66.03870000      28.30230000
Cs      47.17050000      66.03870000      34.59170000
Cs      47.17050000      66.03870000      40.88110000
Cs      47.17050000      66.03870000      47.17050000
Cs      47.17050000      66.03870000      53.45990000
Cs      47.17050000      66.03870000      59.74930000
Cs      47.17050000      66.03870000      66.03870000
Cs      47.17050000      66.03870000      72.32810000
Cs      47.17050000      72.32810000       3.14470000
Cs      47.17050000      72.32810000       9.43410000
Cs      47.17050000      72.32810000      15.72350000
Cs      47.17050000      72.32810000      22.01290000
Cs      47.17050000      72.32810000      28.30230000
Cs      47.17050000      72.32810000      34.59170000
Cs      47.17050000      72.32810000      40.88110000
Cs      47.17050000      72.32810000      47.17050000
Cs      47.17050000      72.32810000      53.45990000
Cs      47.17050000      72.32810000      59.74930000
Cs      47.17050000      72.32810000      66.03870000
Cs      47.17050000      72.32810000      72.32810000
Cs      53.45990000       3.14470000       3.14470000
Cs      53.45990000       3.14470000       9.43410000
Cs      53.45990000       3.14470000      15.72350000
Cs      53.45990000       3.14470000      22.01290000
Cs      53.45990000       3.14470000      28.30230000
Cs      53.45990000       3.14470000      34.59170000
Cs      53.45990000       3.14470000      40.88110000
Cs      53.45990000       3.14470000      47.17050000
Cs      53.45990000       3.14470000      53.45990000
Cs      53.45990000       3.14470000      59.74930000
Cs      53.45990000       3.14470000      66.03870000
Cs      53.45990000       3.14470000      72.32810000
Cs      53.45990000       9.43410000       3.14470000
Cs      53.45990000       9.43410000       9.43410000
Cs      53.45990000       9.43410000      15.72350000
Cs      53.45990000       9.43410000      22.01290000
Cs      53.45990000       9.43410000      28.30230000
Cs      53.45990000       9.43410000      34.59170000
Cs      53.45990000       9.43410000      40.88110000
Cs      53.45990000       9.43410000      47.17050000
Cs      53.45990000       9.43410000      53.45990000
Cs      53.45990000       9.43410000      59.74930000
Cs      53.45990000       9.43410000      66.03870000
Cs      53.45990000       9.43410000      72.32810000
Cs      53.45990000      15.72350000       3.14470000
Cs      53.45990000      15.72350000       9.43410000
Cs      53.45990000      15.72350000      15.72350000
Cs      53.45990000      15.72350000      22.01290000
Cs      53.45990000      15.72350000      28.30230000
Cs      53.45990000      15.72350000      34.59170000
Cs      53.45990000      15.72350000      40.88110000
Cs      53.45990000      15.72350000      47.17050000
Cs      53.45990000      15.72350000      53.45990000
Cs      53.45990000      15.72350000      59.74930000
Cs      53.45990000      15.72350000      66.03870000
Cs      53.45990000      15.72350000      72.32810000
Cs      53.45990000      22.01290000       3.14470000
Cs      53.45990000      22.01290000       9.43410000
Cs      53.45990000      22.01290000      15.72350000
Cs      53.45990000      22.01290000      22.01290000
Cs      53.45990000      22.01290000      28.30230000
Cs      53.45990000      22.01290000      34.59170000
Cs      53.45990000      22.01290000      40.88110000
Cs      53.45990000      22.01290000      47.17050000
Cs      53.45990000      22.01290000      53.45990000
Cs      53.45990000      22.01290000      59.74930000
Cs      53.45990000      22.01290000      66.03870000
Cs      53.45990000      22.01290000      72.32810000
Cs      53.45990000      28.30230000       3.14470000
Cs      53.45990000      28.30230000       9.43410000
Cs      53.45990000      28.30230000      15.72350000
Cs      53.45990000      28.30230000      22.01290000
Cs      53.45990000      28.30230000      28.30230000
Cs      53.45990000      28.30230000      34.59170000
Cs      53.45990000      28.30230000      40.88110000
Cs      53.45990000      28.30230000      47.17050000
Cs      53.45990000      28.30230000      53.45990000
Cs      53.45990000      28.30230000      59.74930000
Cs      53.45990000      28.30230000      66.03870000
Cs      53.45990000      28.30230000      72.32810000
Cs      53.45990000      34.59170000       3.14470000
Cs      53.45990000      34.59170000       9.43410000
Cs      53.45990000      34.59170000      15.72350000
Cs      53.45990000      34.59170000      22.01290000
Cs      53.45990000      34.59170000      28.30230000
Cs      53.45990000      34.59170000      34.59170000
Cs      53.45990000      34.59170000      40.88110000
Cs      53.45990000      34.59170000      47.17050000
Cs      53.45990000      34.59170000      53.45990000
Cs      53.45990000      34.59170000      59.74930000
Cs      53.45990000      34.59170000      66.03870000
Cs      53.45990000      34.59170000      72.32810000
Cs      53.45990000      40.88110000       3.14470000
Cs      53.45990000      40.88110000       9.43410000
Cs      53.45990000      40.88110000      15.72350000
Cs      53.45990000      40.88110000      22.01290000
Cs      53.45990000      40.88110000      28.30230000
Cs      53.45990000      40.88110000      34.59170000
Cs      53.45990000      40.88110000      40.88110000
Cs      53.45990000      40.88110000      47.17050000
Cs      53.45990000      40.88110000      53.45990000
Cs      53.45990000      40.88110000      59.74930000
Cs      53.45990000      40.88110000      66.03870000
Cs      53.45990000      40.88110000      72.32810000
Cs      53.45990000      47.17050000       3.14470000
Cs      53.45990000      47.17050000       9.43410000
Cs      53.45990000      47.17050000      15.72350000
Cs      53.45990000      47.17050000      22.01290000
Cs      53.45990000      47.17050000      28.30230000
Cs      53.45990000      47.17050000      34.59170000
Cs      53.45990000      47.17050000      40.88110000
Cs      53.45990000      47.17050000      47.17050000
Cs      53.45990000      47.17050000      53.45990000
Cs      53.45990000      47.17050000      59.74930000
Cs      53.45990000      47.17050000      66.03870000
Cs      53.45990000      47.17050000      72.32810000
Cs      53.45990000      53.45990000       3.14470000
Cs      53.45990000      53.45990000       9.43410000
Cs      53.45990000      53.45990000      15.72350000
Cs      53.45990000      53.45990000      22.01290000
Cs      53.45990000      53.45990000      28.30230000
Cs      53.45990000      53.45990000      34.59170000
Cs      53.45990000      53.45990000      40.88110000
Cs      53.45990000      53.45990000      47.17050000
Cs      53.45990000      53.45990000      53.45990000
Cs      53.45990000      53.45990000      59.74930000
Cs      53.45990000      53.45990000      66.03870000
Cs      53.45990000      53.45990000      72.32810000
Cs      53.45990000      59.74930000       3.14470000
Cs      53.45990000      59.74930000       9.43410000
Cs      53.45990000      59.74930000      15.72350000
Cs      53.45990000      59.74930000      22.01290000
Cs      53.45990000      59.74930000      28.30230000
Cs      53.45990000      59.74930000      34.59170000
Cs      53.45990000      59.74930000      40.88110000
Cs      53.45990000      59.74930000      47.17050000
Cs      53.45990000      59.74930000      53.45990000
Cs      53.45990000      59.74930000      59.74930000
Cs      53.45990000      59.74930000      66.03870000
Cs      53.45990000      59.74930000      72.32810000
Cs      53.45990000      66.03870000       3.14470000
Cs      53.45990000      66.03870000       9.43410000
Cs      53.45990000      66.03870000      15.72350000
Cs      53.45990000      66.03870000      22.01290000
Cs      53.45990000      66.03870000      28.30230000
Cs      53.45990000      66.03870000      34.59170000
Cs      53.45990000      66.03870000      40.88110000
Cs      53.45990000      66.03870000      47.17050000
Cs      53.45990000      66.03870000      53.45990000
Cs      53.45990000      66.03870000      59.74930000
Cs      53.45990000      66.03870000      66.03870000
Cs      53.45990000      66.03870000      72.32810000
Cs      53.45990000      72.32810000       3.14470000
Cs      53.45990000      72.32810000       9.43410000
Cs      53.45990000      72.32810000      15.72350000
Cs      53.45990000      72.32810000      22.01290000
Cs      53.45990000      72.32810000      28.30230000
Cs      53.45990000      72.32810000      34.59170000
Cs      53.45990000      72.32810000      40.88110000
Cs      53.45990000      72.32810000      47.17050000
Cs      53.45990000      72.32810000      53.45990000
Cs      53.45990000      72.32810000      59.74930000
Cs      53.45990000      72.32810000      66.03870000
Cs      53.45990000      72.32810000      72.32810000
Cs      59.74930000       3.14470000       3.14470000
Cs      59.74930000       3.14470000       9.43410000
Cs      59.74930000       3.14470000      15.72350000
Cs      59.74930000       3.14470000      22.01290000
Cs      59.74930000       3.14470000      28.30230000
Cs      59.74930000       3.14470000      34.59170000
Cs      59.74930000       3.14470000      40.88110000
Cs      59.74930000       3.14470000      47.17050000
Cs      59.74930000       3.14470000      53.45990000
Cs      59.74930000       3.14470000      59.74930000
Cs      59.74930000       3.14470000      66.03870000
Cs      59.74930000       3.14470000      72.32810000
Cs      59.74930000       9.43410000       3.14470000
Cs      59.74930000       9.43410000       9.43410000
Cs      59.74930000       9.43410000      15.72350000
Cs      59.74930000       9.43410000      22.01290000
Cs      59.74930000       9.43410000      28.30230000
Cs      59.74930000       9.43410000      34.59170000
Cs      59.74930000       9.43410000      40.88110000
Cs      59.74930000       9.43410000      47.17050000
Cs      59.74930000       9.43410000      53.45990000
Cs      59.74930000       9.43410000      59.74930000
Cs      59.74930000       9.43410000      66.03870000
Cs      59.74930000       9.43410000      72.32810000
Cs      59.74930000      15.72350000       3.14470000
Cs      59.74930000      15.72350000       9.43410000
Cs      59.74930000      15.72350000      15.72350000
Cs      59.74930000      15.72350000      22.01290000
Cs      59.74930000      15.72350000      28.30230000
Cs      59.74930000      15.72350000      34.59170000
Cs      59.74930000      15.72350000      40.88110000
Cs      59.74930000      15.72350000      47.17050000
Cs      59.74930000      15.72350000      53.45990000
Cs      59.74930000      15.72350000      59.74930000
Cs      59.74930000      15.72350000      66.03870000
Cs      59.74930000      15.72350000      72.32810000
Cs      59.74930000      22.01290000       3.14470000
Cs      59.74930000      22.01290000       9.43410000
Cs      59.74930000      22.01290000      15.72350000
Cs      59.74930000      22.01290000      22.01290000
Cs      59.74930000      22.01290000      28.30230000
Cs      59.74930000      22.01290000      34.59170000
Cs      59.74930000      22.01290000      40.88110000
Cs      59.74930000      22.01290000      47.17050000
Cs      59.74930000      22.01290000      53.45990000
Cs      59.74930000      22.01290000      59.74930000
Cs      59.74930000      22.01290000      66.03870000
Cs      59.74930000      22.01290000      72.32810000
Cs      59.74930000      28.30230000       3.14470000
Cs      59.74930000      28.30230000       9.43410000
Cs      59.74930000      28.30230000      15.72350000
Cs      59.74930000      28.30230000      22.01290000
Cs      59.74930000      28.30230000      28.30230000
Cs      59.74930000      28.30230000      34.59170000
Cs      59.74930000      28.30230000      40.88110000
Cs      59.74930000      28.30230000      47.17050000
Cs      59.74930000      28.30230000      53.45990000
Cs      59.74930000      28.30230000      59.74930000
Cs      59.74930000      28.30230000      66.03870000
Cs      59.74930000      28.30230000      72.32810000
Cs      59.74930000      34.59170000       3.14470000
Cs      59.74930000      34.59170000       9.43410000
Cs      59.74930000      34.59170000      15.72350000
Cs      59.74930000      34.59170000      22.01290000
Cs      59.74930000      34.59170000      28.30230000
Cs      59.74930000      34.59170000      34.59170000
Cs      59.74930000      34.59170000      40.88110000
Cs      59.74930000      34.59170000      47.17050000
Cs      59.74930000      34.59170000      53.45990000
Cs      59.74930000      34.59170000      59.74930000
Cs      59.74930000      34.59170000      66.03870000
Cs      59.74930000      34.59170000      72.32810000
Cs      59.74930000      40.88110000       3.14470000
Cs      59.74930000      40.88110000       9.43410000
Cs      59.74930000      40.88110000      15.72350000
Cs      59.74930000      40.88110000      22.01290000
Cs      59.74930000      40.88110000      28.30230000
Cs      59.74930000      40.88110000      34.59170000
Cs      59.74930000      40.88110000      40.88110000
Cs      59.74930000      40.88110000      47.17050000
Cs      59.74930000      40.88110000      53.45990000
Cs      59.74930000      40.88110000      59.74930000
Cs      59.74930000      40.88110000      66.03870000
Cs      59.74930000      40.88110000      72.32810000
Cs      59.74930000      47.17050000       3.14470000
Cs      59.74930000      47.17050000       9.43410000
Cs      59.74930000      47.17050000      15.72350000
Cs      59.74930000      47.17050000      22.01290000
Cs      59.74930000      47.17050000      28.30230000
Cs      59.74930000      47.17050000      34.59170000
Cs      59.74930000      47.17050000      40.88110000
Cs      59.74930000      47.17050000      47.17050000
Cs      59.74930000      47.17050000      53.45990000
Cs      59.74930000      47.17050000      59.74930000
Cs      59.74930000      47.17050000      66.03870000
Cs      59.74930000      47.17050000      72.32810000
Cs      59.74930000      53.45990000       3.14470000
Cs      59.74930000      53.45990000       9.43410000
Cs      59.74930000      53.45990000      15.72350000
Cs      59.74930000      53.45990000      22.01290000
Cs      59.74930000      53.45990000      28.30230000
Cs      59.74930000      53.45990000      34.59170000
Cs      59.74930000      53.45990000      40.88110000
Cs      59.74930000      53.45990000      47.17050000
Cs      59.74930000      53.45990000      53.45990000
Cs      59.74930000      53.45990000      59.74930000
Cs      59.74930000      53.45990000      66.03870000
Cs      59.74930000      53.45990000      72.32810000
Cs      59.74930000      59.74930000       3.14470000
Cs      59.74930000      59.74930000       9.43410000
Cs      59.74930000      59.74930000      15.72350000
Cs      59.74930000      59.74930000      22.01290000
Cs      59.74930000      59.74930000      28.30230000
Cs      59.74930000      59.74930000      34.59170000
Cs      59.74930000      59.74930000      40.88110000
Cs      59.74930000      59.74930000      47.17050000
Cs      59.74930000      59.74930000      53.45990000
Cs      59.74930000      59.74930000      59.74930000
Cs      59.74930000      59.74930000      66.03870000
Cs      59.74930000      59.74930000      72.32810000
Cs      59.74930000      66.03870000       3.14470000
Cs      59.74930000      66.03870000       9.43410000
Cs      59.74930000      66.03870000      15.72350000
Cs      59.74930000      66.03870000      22.01290000
Cs      59.74930000      66.03870000      28.30230000
Cs      59.74930000      66.03870000      34.59170000
Cs      59.74930000      66.03870000      40.88110000
Cs      59.74930000      66.03870000      47.17050000
Cs      59.74930000      66.03870000      53.45990000
Cs      59.74930000      66.03870000      59.74930000
Cs      59.74930000      66.03870000      66.03870000
Cs      59.74930000      66.03870000      72.32810000
Cs      59.74930000      72.32810000       3.14470000
Cs      59.74930000      72.32810000       9.43410000
Cs      59.74930000      72.32810000      15.72350000
Cs      59.74930000      72.32810000      22.01290000
Cs      59.74930000      72.32810000      28.30230000
Cs      59.74930000      72.32810000      34.59170000
Cs      59.74930000      72.32810000      40.88110000
Cs      59.74930000      72.32810000      47.17050000
Cs      59.74930000      72.32810000      53.45990000
Cs      59.74930000      72.32810000      59.74930000
Cs      59.74930000      72.32810000      66.03870000
Cs      59.74930000      72.32810000      72.32810000
Cs      66.03870000       3.14470000       3.14470000
Cs      66.03870000       3.14470000       9.43410000
Cs      66.03870000       3.14470000      15.72350000
Cs      66.03870000       3.14470000      22.01290000
Cs      66.03870000       3.14470000      28.30230000
Cs      66.03870000       3.14470000      34.59170000
Cs      66.03870000       3.14470000      40.88110000
Cs      66.03870000       3.14470000      47.17050000
Cs      66.03870000       3.14470000      53.45990000
Cs      66.03870000       3.14470000      59.74930000
Cs      66.03870000       3.14470000      66.03870000
Cs      66.03870000       3.14470000      72.32810000
Cs      66.03870000       9.43410000       3.14470000
Cs      66.03870000       9.43410000       9.43410000
Cs      66.03870000       9.43410000      15.72350000
Cs      66.03870000       9.43410000      22.01290000
Cs      66.03870000       9.43410000      28.30230000
Cs      66.03870000       9.43410000      34.59170000
Cs      66.03870000       9.43410000      40.88110000
Cs      66.03870000       9.43410000      47.17050000
Cs      66.03870000       9.43410000      53.45990000
Cs      66.03870000       9.43410000      59.74930000
Cs      66.03870000       9.43410000      66.03870000
Cs      66.03870000       9.43410000      72.32810000
Cs      66.03870000      15.72350000       3.14470000
Cs      66.03870000      15.72350000       9.43410000
Cs      66.03870000      15.72350000      15.72350000
Cs      66.03870000      15.72350000      22.01290000
Cs      66.03870000      15.72350000      28.30230000
Cs      66.03870000      15.72350000      34.59170000
Cs      66.03870000      15.72350000      40.88110000
Cs      66.03870000      15.72350000      47.17050000
Cs      66.03870000      15.72350000      53.45990000
Cs      66.03870000      15.72350000      59.74930000
Cs      66.03870000      15.72350000      66.03870000
Cs      66.03870000      15.72350000      72.32810000
Cs      66.03870000      22.01290000       3.14470000
Cs      66.03870000      22.01290000       9.43410000
Cs      66.03870000      22.01290000      15.72350000
Cs      66.03870000      22.01290000      22.01290000
Cs      66.03870000      22.01290000      28.30230000
Cs      66.03870000      22.01290000      34.59170000
Cs      66.03870000      22.01290000      40.88110000
Cs      66.03870000      22.01290000      47.17050000
Cs      66.03870000      22.01290000      53.45990000
Cs      66.03870000      22.01290000      59.74930000
Cs      66.03870000      22.01290000      66.03870000
Cs      66.03870000      22.01290000      72.32810000
Cs      66.03870000      28.30230000       3.14470000
Cs      66.03870000      28.30230000       9.43410000
Cs      66.03870000      28.30230000      15.72350000
Cs      66.03870000      28.30230000      22.01290000
Cs      66.03870000      28.30230000      28.30230000
Cs      66.03870000      28.30230000      34.59170000
Cs      66.03870000      28.30230000      40.88110000
Cs      66.03870000      28.30230000      47.17050000
Cs      66.03870000      28.30230000      53.45990000
Cs      66.03870000      28.30230000      59.74930000
Cs      66.03870000      28.30230000      66.03870000
Cs      66.03870000      28.30230000      72.32810000
Cs      66.03870000      34.59170000       3.14470000
Cs      66.03870000      34.59170000       9.43410000
Cs      66.03870000      34.59170000      15.72350000
Cs      66.03870000      34.59170000      22.01290000
Cs      66.03870000      34.59170000      28.30230000
Cs      66.03870000      34.59170000      34.59170000
Cs      66.03870000      34.59170000      40.88110000
Cs      66.03870000      34.59170000      47.17050000
Cs      66.03870000      34.59170000      53.45990000
Cs      66.03870000      34.59170000      59.74930000
Cs      66.03870000      34.59170000      66.03870000
Cs      66.03870000      34.59170000      72.32810000
Cs      66.03870000      40.88110000       3.14470000
Cs      66.03870000      40.88110000       9.43410000
Cs      66.03870000      40.88110000      15.72350000
Cs      66.03870000      40.88110000      22.01290000
Cs      66.03870000      40.88110000      28.30230000
Cs      66.03870000      40.88110000      34.59170000
Cs      66.03870000      40.88110000      40.88110000
Cs      66.03870000      40.88110000      47.17050000
Cs      66.03870000      40.88110000      53.45990000
Cs      66.03870000      40.88110000      59.74930000
Cs      66.03870000      40.88110000      66.03870000
Cs      66.03870000      40.88110000      72.32810000
Cs      66.03870000      47.17050000       3.14470000
Cs      66.03870000      47.17050000       9.43410000
Cs      66.03870000      47.17050000      15.72350000
Cs      66.03870000      47.17050000      22.01290000
Cs      66.03870000      47.17050000      28.30230000
Cs      66.03870000      47.17050000      34.59170000
Cs      66.03870000      47.17050000      40.88110000
Cs      66.03870000      47.17050000      47.17050000
Cs      66.03870000      47.17050000      53.45990000
Cs      66.03870000      47.17050000      59.74930000
Cs      66.03870000      47.17050000      66.03870000
Cs      66.03870000      47.17050000      72.32810000
Cs      66.03870000      53.45990000       3.14470000
Cs      66.03870000      53.45990000       9.43410000
Cs      66.03870000      53.45990000      15.72350000
Cs      66.03870000      53.45990000      22.01290000
Cs      66.03870000      53.45990000      28.30230000
Cs      66.03870000      53.45990000      34.59170000
Cs      66.03870000      53.45990000      40.88110000
Cs      66.03870000      53.45990000      47.17050000
Cs      66.03870000      53.45990000      53.45990000
Cs      66.03870000      53.45990000      59.74930000
Cs      66.03870000      53.45990000      66.03870000
Cs      66.03870000      53.45990000      72.32810000
Cs      66.03870000      59.74930000       3.14470000
Cs      66.03870000      59.74930000       9.43410000
Cs      66.03870000      59.74930000      15.72350000
Cs      66.03870000      59.74930000      22.01290000
Cs      66.03870000      59.74930000      28.30230000
Cs      66.03870000      59.74930000      34.59170000
Cs      66.03870000      59.74930000      40.88110000
Cs      66.03870000      59.74930000      47.17050000
Cs      66.03870000      59.74930000      53.45990000
Cs      66.03870000      59.74930000      59.74930000
Cs      66.03870000      59.74930000      66.03870000
Cs      66.03870000      59.74930000      72.32810000
Cs      66.03870000      66.03870000       3.14470000
Cs      66.03870000      66.03870000       9.43410000
Cs      66.03870000      66.03870000      15.72350000
Cs      66.03870000      66.03870000      22.01290000
Cs      66.03870000      66.03870000      28.30230000
Cs      66.03870000      66.03870000      34.59170000
Cs      66.03870000      66.03870000      40.88110000
Cs      66.03870000      66.03870000      47.17050000
Cs      66.03870000      66.03870000      53.45990000
Cs      66.03870000      66.03870000      59.74930000
Cs      66.03870000      66.03870000      66.03870000
Cs      66.03870000      66.03870000      72.32810000
Cs      66.03870000      72.32810000       3.14470000
Cs      66.03870000      72.32810000       9.43410000
Cs      66.03870000      72.32810000      15.72350000
Cs      66.03870000      72.32810000      22.01290000
Cs      66.03870000      72.32810000      28.30230000
Cs      66.03870000      72.32810000      34.59170000
Cs      66.03870000      72.32810000      40.88110000
Cs      66.03870000      72.32810000      47.17050000
Cs      66.03870000      72.32810000      53.45990000
Cs      66.03870000      72.32810000      59.74930000
Cs      66.03870000      72.32810000      66.03870000
Cs      66.03870000      72.32810000      72.32810000
Cs      72.32810000       3.14470000       3.14470000
Cs      72.32810000       3.14470000       9.43410000
Cs      72.32810000       3.14470000      15.72350000
Cs      72.32810000       3.14470000      22.01290000
Cs      72.32810000       3.14470000      28.30230000
Cs      72.32810000       3.14470000      34.59170000
Cs      72.32810000       3.14470000      40.88110000
Cs      72.32810000       3.14470000      47.17050000
Cs      72.32810000       3.14470000      53.45990000
Cs      72.32810000       3.14470000      59.74930000
Cs      72.32810000       3.14470000      66.03870000
Cs      72.32810000       3.14470000      72.32810000
Cs      72.32810000       9.43410000       3.14470000
Cs      72.32810000       9.43410000       9.43410000
Cs      72.32810000       9.43410000      15.72350000
Cs      72.32810000       9.43410000      22.01290000
Cs      72.32810000       9.43410000      28.30230000
Cs      72.32810000       9.43410000      34.59170000
Cs      72.32810000       9.43410000      40.88110000
Cs      72.32810000       9.43410000      47.17050000
Cs      72.32810000       9.43410000      53.45990000
Cs      72.32810000       9.43410000      59.74930000
Cs      72.32810000       9.43410000      66.03870000
Cs      72.32810000       9.43410000      72.32810000
Cs      72.32810000      15.72350000       3.14470000
Cs      72.32810000      15.72350000       9.43410000
Cs      72.32810000      15.72350000      15.72350000
Cs      72.32810000      15.72350000      22.01290000
Cs      72.32810000      15.72350000      28.30230000
Cs      72.32810000      15.72350000      34.59170000
Cs      72.32810000      15.72350000      40.88110000
Cs      72.32810000      15.72350000      47.17050000
Cs      72.32810000      15.72350000      53.45990000
Cs      72.32810000      15.72350000      59.74930000
Cs      72.32810000      15.72350000      66.03870000
Cs      72.32810000      15.72350000      72.32810000
Cs      72.32810000      22.01290000       3.14470000
Cs      72.32810000      22.01290000       9.43410000
Cs      72.32810000      22.01290000      15.72350000
Cs      72.32810000      22.01290000      22.01290000
Cs      72.32810000      22.01290000      28.30230000
Cs      72.32810000      22.01290000      34.59170000
Cs      72.32810000      22.01290000      40.88110000
Cs      72.32810000      22.01290000      47.17050000
Cs      72.32810000      22.01290000      53.45990000
Cs      72.32810000      22.01290000      59.74930000
Cs      72.32810000      22.01290000      66.03870000
Cs      72.32810000      22.01290000      72.32810000
Cs      72.32810000      28.30230000       3.14470000
Cs      72.32810000      28.30230000       9.43410000
Cs      72.32810000      28.30230000      15.72350000
Cs      72.32810000      28.30230000      22.01290000
Cs      72.32810000      28.30230000      28.30230000
Cs      72.32810000      28.30230000      34.59170000
Cs      72.32810000      28.30230000      40.88110000
Cs      72.32810000      28.30230000      47.17050000
Cs      72.32810000      28.30230000      53.45990000
Cs      72.32810000      28.30230000      59.74930000
Cs      72.32810000      28.30230000      66.03870000
Cs      72.32810000      28.30230000      72.32810000
Cs      72.32810000      34.59170000       3.14470000
Cs      72.32810000      34.59170000       9.43410000
Cs      72.32810000      34.59170000      15.72350000
Cs      72.32810000      34.59170000      22.01290000
Cs      72.32810000      34.59170000      28.30230000
Cs      72.32810000      34.59170000      34.59170000
Cs      72.32810000      34.59170000      40.88110000
Cs      72.32810000      34.59170000      47.17050000
Cs      72.32810000      34.59170000      53.45990000
Cs      72.32810000      34.59170000      59.74930000
Cs      72.32810000      34.59170000      66.03870000
Cs      72.32810000      34.59170000      72.32810000
Cs      72.32810000      40.88110000       3.14470000
Cs      72.32810000      40.88110000       9.43410000
Cs      72.32810000      40.88110000      15.72350000
Cs      72.32810000      40.88110000      22.01290000
Cs      72.32810000      40.88110000      28.30230000
Cs      72.32810000      40.88110000      34.59170000
Cs      72.32810000      40.88110000      40.88110000
Cs      72.32810000      40.88110000      47.17050000
Cs      72.32810000      40.88110000      53.45990000
Cs      72.32810000      40.88110000      59.74930000
Cs      72.32810000      40.88110000      66.03870000
Cs      72.32810000      40.88110000      72.32810000
Cs      72.32810000      47.17050000       3.14470000
Cs      72.32810000      47.17050000       9.43410000
Cs      72.32810000      47.17050000      15.72350000
Cs      72.32810000      47.17050000      22.01290000
Cs      72.32810000      47.17050000      28.30230000
Cs      72.32810000      47.17050000      34.59170000
Cs      72.32810000      47.17050000      40.88110000
Cs      72.32810000      47.17050000      47.17050000
Cs      72.32810000      47.17050000      53.45990000
Cs      72.32810000      47.17050000      59.74930000
Cs      72.32810000      47.17050000      66.03870000
Cs      72.32810000      47.17050000      72.32810000
Cs      72.32810000      53.45990000       3.14470000
Cs      72.32810000      53.45990000       9.43410000
Cs      72.32810000      53.45990000      15.72350000
Cs      72.32810000      53.45990000      22.01290000
Cs      72.32810000      53.45990000      28.30230000
Cs      72.32810000      53.45990000      34.59170000
Cs      72.32810000      53.45990000      40.88110000
Cs      72.32810000      53.45990000      47.17050000
Cs      72.32810000      53.45990000      53.45990000
Cs      72.32810000      53.45990000      59.74930000
Cs      72.32810000      53.45990000      66.03870000
Cs      72.32810000      53.45990000      72.32810000
Cs      72.32810000      59.74930000       3.14470000
Cs      72.32810000      59.74930000       9.43410000
Cs      72.32810000      59.74930000      15.72350000
Cs      72.32810000      59.74930000      22.01290000
Cs      72.32810000      59.74930000      28.30230000
Cs      72.32810000      59.74930000      34.59170000
Cs      72.32810000      59.74930000      40.88110000
Cs      72.32810000      59.74930000      47.17050000
Cs      72.32810000      59.74930000      53.45990000
Cs      72.32810000      59.74930000      59.74930000
Cs      72.32810000      59.74930000      66.03870000
Cs      72.32810000      59.74930000      72.32810000
Cs      72.32810000      66.03870000       3.14470000
Cs      72.32810000      66.03870000       9.43410000
Cs      72.32810000      66.03870000      15.72350000
Cs      72.32810000      66.03870000      22.01290000
Cs      72.32810000      66.03870000      28.30230000
Cs      72.32810000      66.03870000      34.59170000
Cs      72.32810000      66.03870000      40.88110000
Cs      72.32810000      66.03870000      47.17050000
Cs      72.32810000      66.03870000      53.45990000
Cs      72.32810000      66.03870000      59.74930000
Cs      72.32810000      66.03870000      66.03870000
Cs      72.32810000      66.03870000      72.32810000
Cs      72.32810000      72.32810000       3.14470000
Cs      72.32810000      72.32810000       9.43410000
Cs      72.32810000      72.32810000      15.72350000
Cs      72.32810000      72.32810000      22.01290000
Cs      72.32810000      72.32810000      28.30230000
Cs      72.32810000      72.32810000      34.59170000
Cs      72.32810000      72.32810000      40.88110000
Cs      72.32810000      72.32810000      47.17050000
Cs      72.32810000      72.32810000      53.45990000
Cs      72.32810000      72.32810000      59.74930000
Cs      72.32810000      72.32810000      66.03870000
Cs      72.32810000      72.32810000      72.32810000
Pb       0.00000000       0.00000000       0.00000000
Pb       0.00000000       0.00000000       6.28940000
Pb       0.00000000       0.00000000      12.57880000
Pb       0.00000000       0.00000000      18.86820000
Pb       0.00000000       0.00000000      25.15760000
Pb       0.00000000       0.00000000      31.44700000
Pb       0.00000000       0.00000000      37.73640000
Pb       0.00000000       0.00000000      44.02580000
Pb       0.00000000       0.00000000      50.31520000
Pb       0.00000000       0.00000000      56.60460000
Pb       0.00000000       0.00000000      62.89400000
Pb       0.00000000       0.00000000      69.18340000
Pb       0.00000000       6.28940000       0.00000000
Pb       0.00000000       6.28940000       6.28940000
Pb       0.00000000       6.28940000      12.57880000
Pb       0.00000000       6.28940000      18.86820000
Pb       0.00000000       6.28940000      25.15760000
Pb       0.00000000       6.28940000      31.44700000
Pb       0.00000000       6.28940000      37.73640000
Pb       0.00000000       6.28940000      44.02580000
Pb       0.00000000       6.28940000      50.31520000
Pb       0.00000000       6.28940000      56.60460000
Pb       0.00000000       6.28940000      62.89400000
Pb       0.00000000       6.28940000      69.18340000
Pb       0.00000000      12.57880000       0.00000000
Pb       0.00000000      12.57880000       6.28940000
Pb       0.00000000      12.57880000      12.57880000
Pb       0.00000000      12.57880000      18.86820000
Pb       0.00000000      12.57880000      25.15760000
Pb       0.00000000      12.57880000      31.44700000
Pb       0.00000000      12.57880000      37.73640000
Pb       0.00000000      12.57880000      44.02580000
Pb       0.00000000      12.57880000      50.31520000
Pb       0.00000000      12.57880000      56.60460000
Pb       0.00000000      12.57880000      62.89400000
Pb       0.00000000      12.57880000      69.18340000
Pb       0.00000000      18.86820000       0.00000000
Pb       0.00000000      18.86820000       6.28940000
Pb       0.00000000      18.86820000      12.57880000
Pb       0.00000000      18.86820000      18.86820000
Pb       0.00000000      18.86820000      25.15760000
Pb       0.00000000      18.86820000      31.44700000
Pb       0.00000000      18.86820000      37.73640000
Pb       0.00000000      18.86820000      44.02580000
Pb       0.00000000      18.86820000      50.31520000
Pb       0.00000000      18.86820000      56.60460000
Pb       0.00000000      18.86820000      62.89400000
Pb       0.00000000      18.86820000      69.18340000
Pb       0.00000000      25.15760000       0.00000000
Pb       0.00000000      25.15760000       6.28940000
Pb       0.00000000      25.15760000      12.57880000
Pb       0.00000000      25.15760000      18.86820000
Pb       0.00000000      25.15760000      25.15760000
Pb       0.00000000      25.15760000      31.44700000
Pb       0.00000000      25.15760000      37.73640000
Pb       0.00000000      25.15760000      44.02580000
Pb       0.00000000      25.15760000      50.31520000
Pb       0.00000000      25.15760000      56.60460000
Pb       0.00000000      25.15760000      62.89400000
Pb       0.00000000      25.15760000      69.18340000
Pb       0.00000000      31.44700000       0.00000000
Pb       0.00000000      31.44700000       6.28940000
Pb       0.00000000      31.44700000      12.57880000
Pb       0.00000000      31.44700000      18.86820000
Pb       0.00000000      31.44700000      25.15760000
Pb       0.00000000      31.44700000      31.44700000
Pb       0.00000000      31.44700000      37.73640000
Pb       0.00000000      31.44700000      44.02580000
Pb       0.00000000      31.44700000      50.31520000
Pb       0.00000000      31.44700000      56.60460000
Pb       0.00000000      31.44700000      62.89400000
Pb       0.00000000      31.44700000      69.18340000
Pb       0.00000000      37.73640000       0.00000000
Pb       0.00000000      37.73640000       6.28940000
Pb       0.00000000      37.73640000      12.57880000
Pb       0.00000000      37.73640000      18.86820000
Pb       0.00000000      37.73640000      25.15760000
Pb       0.00000000      37.73640000      31.44700000
Pb       0.00000000      37.73640000      37.73640000
Pb       0.00000000      37.73640000      44.02580000
Pb       0.00000000      37.73640000      50.31520000
Pb       0.00000000      37.73640000      56.60460000
Pb       0.00000000      37.73640000      62.89400000
Pb       0.00000000      37.73640000      69.18340000
Pb       0.00000000      44.02580000       0.00000000
Pb       0.00000000      44.02580000       6.28940000
Pb       0.00000000      44.02580000      12.57880000
Pb       0.00000000      44.02580000      18.86820000
Pb       0.00000000      44.02580000      25.15760000
Pb       0.00000000      44.02580000      31.44700000
Pb       0.00000000      44.02580000      37.73640000
Pb       0.00000000      44.02580000      44.02580000
Pb       0.00000000      44.02580000      50.31520000
Pb       0.00000000      44.02580000      56.60460000
Pb       0.00000000      44.02580000      62.89400000
Pb       0.00000000      44.02580000      69.18340000
Pb       0.00000000      50.31520000       0.00000000
Pb       0.00000000      50.31520000       6.28940000
Pb       0.00000000      50.31520000      12.57880000
Pb       0.00000000      50.31520000      18.86820000
Pb       0.00000000      50.31520000      25.15760000
Pb       0.00000000      50.31520000      31.44700000
Pb       0.00000000      50.31520000      37.73640000
Pb       0.00000000      50.31520000      44.02580000
Pb       0.00000000      50.31520000      50.31520000
Pb       0.00000000      50.31520000      56.60460000
Pb       0.00000000      50.31520000      62.89400000
Pb       0.00000000      50.31520000      69.18340000
Pb       0.00000000      56.60460000       0.00000000
Pb       0.00000000      56.60460000       6.28940000
Pb       0.00000000      56.60460000      12.57880000
Pb       0.00000000      56.60460000      18.86820000
Pb       0.00000000      56.60460000      25.15760000
Pb       0.00000000      56.60460000      31.44700000
Pb       0.00000000      56.60460000      37.73640000
Pb       0.00000000      56.60460000      44.02580000
Pb       0.00000000      56.60460000      50.31520000
Pb       0.00000000      56.60460000      56.60460000
Pb       0.00000000      56.60460000      62.89400000
Pb       0.00000000      56.60460000      69.18340000
Pb       0.00000000      62.89400000       0.00000000
Pb       0.00000000      62.89400000       6.28940000
Pb       0.00000000      62.89400000      12.57880000
Pb       0.00000000      62.89400000      18.86820000
Pb       0.00000000      62.89400000      25.15760000
Pb       0.00000000      62.89400000      31.44700000
Pb       0.00000000      62.89400000      37.73640000
Pb       0.00000000      62.89400000      44.02580000
Pb       0.00000000      62.89400000      50.31520000
Pb       0.00000000      62.89400000      56.60460000
Pb       0.00000000      62.89400000      62.89400000
Pb       0.00000000      62.89400000      69.18340000
Pb       0.00000000      69.18340000       0.00000000
Pb       0.00000000      69.18340000       6.28940000
Pb       0.00000000      69.18340000      12.57880000
Pb       0.00000000      69.18340000      18.86820000
Pb       0.00000000      69.18340000      25.15760000
Pb       0.00000000      69.18340000      31.44700000
Pb       0.00000000      69.18340000      37.73640000
Pb       0.00000000      69.18340000      44.02580000
Pb       0.00000000      69.18340000      50.31520000
Pb       0.00000000      69.18340000      56.60460000
Pb       0.00000000      69.18340000      62.89400000
Pb       0.00000000      69.18340000      69.18340000
Pb       6.28940000       0.00000000       0.00000000
Pb       6.28940000       0.00000000       6.28940000
Pb       6.28940000       0.00000000      12.57880000
Pb       6.28940000       0.00000000      18.86820000
Pb       6.28940000       0.00000000      25.15760000
Pb       6.28940000       0.00000000      31.44700000
Pb       6.28940000       0.00000000      37.73640000
Pb       6.28940000       0.00000000      44.02580000
Pb       6.28940000       0.00000000      50.31520000
Pb       6.28940000       0.00000000      56.60460000
Pb       6.28940000       0.00000000      62.89400000
Pb       6.28940000       0.00000000      69.18340000
Pb       6.28940000       6.28940000       0.00000000
Pb       6.28940000       6.28940000       6.28940000
Pb       6.28940000       6.28940000      12.57880000
Pb       6.28940000       6.28940000      18.86820000
Pb       6.28940000       6.28940000      25.15760000
Pb       6.28940000       6.28940000      31.44700000
Pb       6.28940000       6.28940000      37.73640000
Pb       6.28940000       6.28940000      44.02580000
Pb       6.28940000       6.28940000      50.31520000
Pb       6.28940000       6.28940000      56.60460000
Pb       6.28940000       6.28940000      62.89400000
Pb       6.28940000       6.28940000      69.18340000
Pb       6.28940000      12.57880000       0.00000000
Pb       6.28940000      12.57880000       6.28940000
Pb       6.28940000      12.57880000      12.57880000
Pb       6.28940000      12.57880000      18.86820000
Pb       6.28940000      12.57880000      25.15760000
Pb       6.28940000      12.57880000      31.44700000
Pb       6.28940000      12.57880000      37.73640000
Pb       6.28940000      12.57880000      44.02580000
Pb       6.28940000      12.57880000      50.31520000
Pb       6.28940000      12.57880000      56.60460000
Pb       6.28940000      12.57880000      62.89400000
Pb       6.28940000      12.57880000      69.18340000
Pb       6.28940000      18.86820000       0.00000000
Pb       6.28940000      18.86820000       6.28940000
Pb       6.28940000      18.86820000      12.57880000
Pb       6.28940000      18.86820000      18.86820000
Pb       6.28940000      18.86820000      25.15760000
Pb       6.28940000      18.86820000      31.44700000
Pb       6.28940000      18.86820000      37.73640000
Pb       6.28940000      18.86820000      44.02580000
Pb       6.28940000      18.86820000      50.31520000
Pb       6.28940000      18.86820000      56.60460000
Pb       6.28940000      18.86820000      62.89400000
Pb       6.28940000      18.86820000      69.18340000
Pb       6.28940000      25.15760000       0.00000000
Pb       6.28940000      25.15760000       6.28940000
Pb       6.28940000      25.15760000      12.57880000
Pb       6.28940000      25.15760000      18.86820000
Pb       6.28940000      25.15760000      25.15760000
Pb       6.28940000      25.15760000      31.44700000
Pb       6.28940000      25.15760000      37.73640000
Pb       6.28940000      25.15760000      44.02580000
Pb       6.28940000      25.15760000      50.31520000
Pb       6.28940000      25.15760000      56.60460000
Pb       6.28940000      25.15760000      62.89400000
Pb       6.28940000      25.15760000      69.18340000
Pb       6.28940000      31.44700000       0.00000000
Pb       6.28940000      31.44700000       6.28940000
Pb       6.28940000      31.44700000      12.57880000
Pb       6.28940000      31.44700000      18.86820000
Pb       6.28940000      31.44700000      25.15760000
Pb       6.28940000      31.44700000      31.44700000
Pb       6.28940000      31.44700000      37.73640000
Pb       6.28940000      31.44700000      44.02580000
Pb       6.28940000      31.44700000      50.31520000
Pb       6.28940000      31.44700000      56.60460000
Pb       6.28940000      31.44700000      62.89400000
Pb       6.28940000      31.44700000      69.18340000
Pb       6.28940000      37.73640000       0.00000000
Pb       6.28940000      37.73640000       6.28940000
Pb       6.28940000      37.73640000      12.57880000
Pb       6.28940000      37.73640000      18.86820000
Pb       6.28940000      37.73640000      25.15760000
Pb       6.28940000      37.73640000      31.44700000
Pb       6.28940000      37.73640000      37.73640000
Pb       6.28940000      37.73640000      44.02580000
Pb       6.28940000      37.73640000      50.31520000
Pb       6.28940000      37.73640000      56.60460000
Pb       6.28940000      37.73640000      62.89400000
Pb       6.28940000      37.73640000      69.18340000
Pb       6.28940000      44.02580000       0.00000000
Pb       6.28940000      44.02580000       6.28940000
Pb       6.28940000      44.02580000      12.57880000
Pb       6.28940000      44.02580000      18.86820000
Pb       6.28940000      44.02580000      25.15760000
Pb       6.28940000      44.02580000      31.44700000
Pb       6.28940000      44.02580000      37.73640000
Pb       6.28940000      44.02580000      44.02580000
Pb       6.28940000      44.02580000      50.31520000
Pb       6.28940000      44.02580000      56.60460000
Pb       6.28940000      44.02580000      62.89400000
Pb       6.28940000      44.02580000      69.18340000
Pb       6.28940000      50.31520000       0.00000000
Pb       6.28940000      50.31520000       6.28940000
Pb       6.28940000      50.31520000      12.57880000
Pb       6.28940000      50.31520000      18.86820000
Pb       6.28940000      50.31520000      25.15760000
Pb       6.28940000      50.31520000      31.44700000
Pb       6.28940000      50.31520000      37.73640000
Pb       6.28940000      50.31520000      44.02580000
Pb       6.28940000      50.31520000      50.31520000
Pb       6.28940000      50.31520000      56.60460000
Pb       6.28940000      50.31520000      62.89400000
Pb       6.28940000      50.31520000      69.18340000
Pb       6.28940000      56.60460000       0.00000000
Pb       6.28940000      56.60460000       6.28940000
Pb       6.28940000      56.60460000      12.57880000
Pb       6.28940000      56.60460000      18.86820000
Pb       6.28940000      56.60460000      25.15760000
Pb       6.28940000      56.60460000      31.44700000
Pb       6.28940000      56.60460000      37.73640000
Pb       6.28940000      56.60460000      44.02580000
Pb       6.28940000      56.60460000      50.31520000
Pb       6.28940000      56.60460000      56.60460000
Pb       6.28940000      56.60460000      62.89400000
Pb       6.28940000      56.60460000      69.18340000
Pb       6.28940000      62.89400000       0.00000000
Pb       6.28940000      62.89400000       6.28940000
Pb       6.28940000      62.89400000      12.57880000
Pb       6.28940000      62.89400000      18.86820000
Pb       6.28940000      62.89400000      25.15760000
Pb       6.28940000      62.89400000      31.44700000
Pb       6.28940000      62.89400000      37.73640000
Pb       6.28940000      62.89400000      44.02580000
Pb       6.28940000      62.89400000      50.31520000
Pb       6.28940000      62.89400000      56.60460000
Pb       6.28940000      62.89400000      62.89400000
Pb       6.28940000      62.89400000      69.18340000
Pb       6.28940000      69.18340000       0.00000000
Pb       6.28940000      69.18340000       6.28940000
Pb       6.28940000      69.18340000      12.57880000
Pb       6.28940000      69.18340000      18.86820000
Pb       6.28940000      69.18340000      25.15760000
Pb       6.28940000      69.18340000      31.44700000
Pb       6.28940000      69.18340000      37.73640000
Pb       6.28940000      69.18340000      44.02580000
Pb       6.28940000      69.18340000      50.31520000
Pb       6.28940000      69.18340000      56.60460000
Pb       6.28940000      69.18340000      62.89400000
Pb       6.28940000      69.18340000      69.18340000
Pb      12.57880000       0.00000000       0.00000000
Pb      12.57880000       0.00000000       6.28940000
Pb      12.57880000       0.00000000      12.57880000
Pb      12.57880000       0.00000000      18.86820000
Pb      12.57880000       0.00000000      25.15760000
Pb      12.57880000       0.00000000      31.44700000
Pb      12.57880000       0.00000000      37.73640000
Pb      12.57880000       0.00000000      44.02580000
Pb      12.57880000       0.00000000      50.31520000
Pb      12.57880000       0.00000000      56.60460000
Pb      12.57880000       0.00000000      62.89400000
Pb      12.57880000       0.00000000      69.18340000
Pb      12.57880000       6.28940000       0.00000000
Pb      12.57880000       6.28940000       6.28940000
Pb      12.57880000       6.28940000      12.57880000
Pb      12.57880000       6.28940000      18.86820000
Pb      12.57880000       6.28940000      25.15760000
Pb      12.57880000       6.28940000      31.44700000
Pb      12.57880000       6.28940000      37.73640000
Pb      12.57880000       6.28940000      44.02580000
Pb      12.57880000       6.28940000      50.31520000
Pb      12.57880000       6.28940000      56.60460000
Pb      12.57880000       6.28940000      62.89400000
Pb      12.57880000       6.28940000      69.18340000
Pb      12.57880000      12.57880000       0.00000000
Pb      12.57880000      12.57880000       6.28940000
Pb      12.57880000      12.57880000      12.57880000
Pb      12.57880000      12.57880000      18.86820000
Pb      12.57880000      12.57880000      25.15760000
Pb      12.57880000      12.57880000      31.44700000
Pb      12.57880000      12.57880000      37.73640000
Pb      12.57880000      12.57880000      44.02580000
Pb      12.57880000      12.57880000      50.31520000
Pb      12.57880000      12.57880000      56.60460000
Pb      12.57880000      12.57880000      62.89400000
Pb      12.57880000      12.57880000      69.18340000
Pb      12.57880000      18.86820000       0.00000000
Pb      12.57880000      18.86820000       6.28940000
Pb      12.57880000      18.86820000      12.57880000
Pb      12.57880000      18.86820000      18.86820000
Pb      12.57880000      18.86820000      25.15760000
Pb      12.57880000      18.86820000      31.44700000
Pb      12.57880000      18.86820000      37.73640000
Pb      12.57880000      18.86820000      44.02580000
Pb      12.57880000      18.86820000      50.31520000
Pb      12.57880000      18.86820000      56.60460000
Pb      12.57880000      18.86820000      62.89400000
Pb      12.57880000      18.86820000      69.18340000
Pb      12.57880000      25.15760000       0.00000000
Pb      12.57880000      25.15760000       6.28940000
Pb      12.57880000      25.15760000      12.57880000
Pb      12.57880000      25.15760000      18.86820000
Pb      12.57880000      25.15760000      25.15760000
Pb      12.57880000      25.15760000      31.44700000
Pb      12.57880000      25.15760000      37.73640000
Pb      12.57880000      25.15760000      44.02580000
Pb      12.57880000      25.15760000      50.31520000
Pb      12.57880000      25.15760000      56.60460000
Pb      12.57880000      25.15760000      62.89400000
Pb      12.57880000      25.15760000      69.18340000
Pb      12.57880000      31.44700000       0.00000000
Pb      12.57880000      31.44700000       6.28940000
Pb      12.57880000      31.44700000      12.57880000
Pb      12.57880000      31.44700000      18.86820000
Pb      12.57880000      31.44700000      25.15760000
Pb      12.57880000      31.44700000      31.44700000
Pb      12.57880000      31.44700000      37.73640000
Pb      12.57880000      31.44700000      44.02580000
Pb      12.57880000      31.44700000      50.31520000
Pb      12.57880000      31.44700000      56.60460000
Pb      12.57880000      31.44700000      62.89400000
Pb      12.57880000      31.44700000      69.18340000
Pb      12.57880000      37.73640000       0.00000000
Pb      12.57880000      37.73640000       6.28940000
Pb      12.57880000      37.73640000      12.57880000
Pb      12.57880000      37.73640000      18.86820000
Pb      12.57880000      37.73640000      25.15760000
Pb      12.57880000      37.73640000      31.44700000
Pb      12.57880000      37.73640000      37.73640000
Pb      12.57880000      37.73640000      44.02580000
Pb      12.57880000      37.73640000      50.31520000
Pb      12.57880000      37.73640000      56.60460000
Pb      12.57880000      37.73640000      62.89400000
Pb      12.57880000      37.73640000      69.18340000
Pb      12.57880000      44.02580000       0.00000000
Pb      12.57880000      44.02580000       6.28940000
Pb      12.57880000      44.02580000      12.57880000
Pb      12.57880000      44.02580000      18.86820000
Pb      12.57880000      44.02580000      25.15760000
Pb      12.57880000      44.02580000      31.44700000
Pb      12.57880000      44.02580000      37.73640000
Pb      12.57880000      44.02580000      44.02580000
Pb      12.57880000      44.02580000      50.31520000
Pb      12.57880000      44.02580000      56.60460000
Pb      12.57880000      44.02580000      62.89400000
Pb      12.57880000      44.02580000      69.18340000
Pb      12.57880000      50.31520000       0.00000000
Pb      12.57880000      50.31520000       6.28940000
Pb      12.57880000      50.31520000      12.57880000
Pb      12.57880000      50.31520000      18.86820000
Pb      12.57880000      50.31520000      25.15760000
Pb      12.57880000      50.31520000      31.44700000
Pb      12.57880000      50.31520000      37.73640000
Pb      12.57880000      50.31520000      44.02580000
Pb      12.57880000      50.31520000      50.31520000
Pb      12.57880000      50.31520000      56.60460000
Pb      12.57880000      50.31520000      62.89400000
Pb      12.57880000      50.31520000      69.18340000
Pb      12.57880000      56.60460000       0.00000000
Pb      12.57880000      56.60460000       6.28940000
Pb      12.57880000      56.60460000      12.57880000
Pb      12.57880000      56.60460000      18.86820000
Pb      12.57880000      56.60460000      25.15760000
Pb      12.57880000      56.60460000      31.44700000
Pb      12.57880000      56.60460000      37.73640000
Pb      12.57880000      56.60460000      44.02580000
Pb      12.57880000      56.60460000      50.31520000
Pb      12.57880000      56.60460000      56.60460000
Pb      12.57880000      56.60460000      62.89400000
Pb      12.57880000      56.60460000      69.18340000
Pb      12.57880000      62.89400000       0.00000000
Pb      12.57880000      62.89400000       6.28940000
Pb      12.57880000      62.89400000      12.57880000
Pb      12.57880000      62.89400000      18.86820000
Pb      12.57880000      62.89400000      25.15760000
Pb      12.57880000      62.89400000      31.44700000
Pb      12.57880000      62.89400000      37.73640000
Pb      12.57880000      62.89400000      44.02580000
Pb      12.57880000      62.89400000      50.31520000
Pb      12.57880000      62.89400000      56.60460000
Pb      12.57880000      62.89400000      62.89400000
Pb      12.57880000      62.89400000      69.18340000
Pb      12.57880000      69.18340000       0.00000000
Pb      12.57880000      69.18340000       6.28940000
Pb      12.57880000      69.18340000      12.57880000
Pb      12.57880000      69.18340000      18.86820000
Pb      12.57880000      69.18340000      25.15760000
Pb      12.57880000      69.18340000      31.44700000
Pb      12.57880000      69.18340000      37.73640000
Pb      12.57880000      69.18340000      44.02580000
Pb      12.57880000      69.18340000      50.31520000
Pb      12.57880000      69.18340000      56.60460000
Pb      12.57880000      69.18340000      62.89400000
Pb      12.57880000      69.18340000      69.18340000
Pb      18.86820000       0.00000000       0.00000000
Pb      18.86820000       0.00000000       6.28940000
Pb      18.86820000       0.00000000      12.57880000
Pb      18.86820000       0.00000000      18.86820000
Pb      18.86820000       0.00000000      25.15760000
Pb      18.86820000       0.00000000      31.44700000
Pb      18.86820000       0.00000000      37.73640000
Pb      18.86820000       0.00000000      44.02580000
Pb      18.86820000       0.00000000      50.31520000
Pb      18.86820000       0.00000000      56.60460000
Pb      18.86820000       0.00000000      62.89400000
Pb      18.86820000       0.00000000      69.18340000
Pb      18.86820000       6.28940000       0.00000000
Pb      18.86820000       6.28940000       6.28940000
Pb      18.86820000       6.28940000      12.57880000
Pb      18.86820000       6.28940000      18.86820000
Pb      18.86820000       6.28940000      25.15760000
Pb      18.86820000       6.28940000      31.44700000
Pb      18.86820000       6.28940000      37.73640000
Pb      18.86820000       6.28940000      44.02580000
Pb      18.86820000       6.28940000      50.31520000
Pb      18.86820000       6.28940000      56.60460000
Pb      18.86820000       6.28940000      62.89400000
Pb      18.86820000       6.28940000      69.18340000
Pb      18.86820000      12.57880000       0.00000000
Pb      18.86820000      12.57880000       6.28940000
Pb      18.86820000      12.57880000      12.57880000
Pb      18.86820000      12.57880000      18.86820000
Pb      18.86820000      12.57880000      25.15760000
Pb      18.86820000      12.57880000      31.44700000
Pb      18.86820000      12.57880000      37.73640000
Pb      18.86820000      12.57880000      44.02580000
Pb      18.86820000      12.57880000      50.31520000
Pb      18.86820000      12.57880000      56.60460000
Pb      18.86820000      12.57880000      62.89400000
Pb      18.86820000      12.57880000      69.18340000
Pb      18.86820000      18.86820000       0.00000000
Pb      18.86820000      18.86820000       6.28940000
Pb      18.86820000      18.86820000      12.57880000
Pb      18.86820000      18.86820000      18.86820000
Pb      18.86820000      18.86820000      25.15760000
Pb      18.86820000      18.86820000      31.44700000
Pb      18.86820000      18.86820000      37.73640000
Pb      18.86820000      18.86820000      44.02580000
Pb      18.86820000      18.86820000      50.31520000
Pb      18.86820000      18.86820000      56.60460000
Pb      18.86820000      18.86820000      62.89400000
Pb      18.86820000      18.86820000      69.18340000
Pb      18.86820000      25.15760000       0.00000000
Pb      18.86820000      25.15760000       6.28940000
Pb      18.86820000      25.15760000      12.57880000
Pb      18.86820000      25.15760000      18.86820000
Pb      18.86820000      25.15760000      25.15760000
Pb      18.86820000      25.15760000      31.44700000
Pb      18.86820000      25.15760000      37.73640000
Pb      18.86820000      25.15760000      44.02580000
Pb      18.86820000      25.15760000      50.31520000
Pb      18.86820000      25.15760000      56.60460000
Pb      18.86820000      25.15760000      62.89400000
Pb      18.86820000      25.15760000      69.18340000
Pb      18.86820000      31.44700000       0.00000000
Pb      18.86820000      31.44700000       6.28940000
Pb      18.86820000      31.44700000      12.57880000
Pb      18.86820000      31.44700000      18.86820000
Pb      18.86820000      31.44700000      25.15760000
Pb      18.86820000      31.44700000      31.44700000
Pb      18.86820000      31.44700000      37.73640000
Pb      18.86820000      31.44700000      44.02580000
Pb      18.86820000      31.44700000      50.31520000
Pb      18.86820000      31.44700000      56.60460000
Pb      18.86820000      31.44700000      62.89400000
Pb      18.86820000      31.44700000      69.18340000
Pb      18.86820000      37.73640000       0.00000000
Pb      18.86820000      37.73640000       6.28940000
Pb      18.86820000      37.73640000      12.57880000
Pb      18.86820000      37.73640000      18.86820000
Pb      18.86820000      37.73640000      25.15760000
Pb      18.86820000      37.73640000      31.44700000
Pb      18.86820000      37.73640000      37.73640000
Pb      18.86820000      37.73640000      44.02580000
Pb      18.86820000      37.73640000      50.31520000
Pb      18.86820000      37.73640000      56.60460000
Pb      18.86820000      37.73640000      62.89400000
Pb      18.86820000      37.73640000      69.18340000
Pb      18.86820000      44.02580000       0.00000000
Pb      18.86820000      44.02580000       6.28940000
Pb      18.86820000      44.02580000      12.57880000
Pb      18.86820000      44.02580000      18.86820000
Pb      18.86820000      44.02580000      25.15760000
Pb      18.86820000      44.02580000      31.44700000
Pb      18.86820000      44.02580000      37.73640000
Pb      18.86820000      44.02580000      44.02580000
Pb      18.86820000      44.02580000      50.31520000
Pb      18.86820000      44.02580000      56.60460000
Pb      18.86820000      44.02580000      62.89400000
Pb      18.86820000      44.02580000      69.18340000
Pb      18.86820000      50.31520000       0.00000000
Pb      18.86820000      50.31520000       6.28940000
Pb      18.86820000      50.31520000      12.57880000
Pb      18.86820000      50.31520000      18.86820000
Pb      18.86820000      50.31520000      25.15760000
Pb      18.86820000      50.31520000      31.44700000
Pb      18.86820000      50.31520000      37.73640000
Pb      18.86820000      50.31520000      44.02580000
Pb      18.86820000      50.31520000      50.31520000
Pb      18.86820000      50.31520000      56.60460000
Pb      18.86820000      50.31520000      62.89400000
Pb      18.86820000      50.31520000      69.18340000
Pb      18.86820000      56.60460000       0.00000000
Pb      18.86820000      56.60460000       6.28940000
Pb      18.86820000      56.60460000      12.57880000
Pb      18.86820000      56.60460000      18.86820000
Pb      18.86820000      56.60460000      25.15760000
Pb      18.86820000      56.60460000      31.44700000
Pb      18.86820000      56.60460000      37.73640000
Pb      18.86820000      56.60460000      44.02580000
Pb      18.86820000      56.60460000      50.31520000
Pb      18.86820000      56.60460000      56.60460000
Pb      18.86820000      56.60460000      62.89400000
Pb      18.86820000      56.60460000      69.18340000
Pb      18.86820000      62.89400000       0.00000000
Pb      18.86820000      62.89400000       6.28940000
Pb      18.86820000      62.89400000      12.57880000
Pb      18.86820000      62.89400000      18.86820000
Pb      18.86820000      62.89400000      25.15760000
Pb      18.86820000      62.89400000      31.44700000
Pb      18.86820000      62.89400000      37.73640000
Pb      18.86820000      62.89400000      44.02580000
Pb      18.86820000      62.89400000      50.31520000
Pb      18.86820000      62.89400000      56.60460000
Pb      18.86820000      62.89400000      62.89400000
Pb      18.86820000      62.89400000      69.18340000
Pb      18.86820000      69.18340000       0.00000000
Pb      18.86820000      69.18340000       6.28940000
Pb      18.86820000      69.18340000      12.57880000
Pb      18.86820000      69.18340000      18.86820000
Pb      18.86820000      69.18340000      25.15760000
Pb      18.86820000      69.18340000      31.44700000
Pb      18.86820000      69.18340000      37.73640000
Pb      18.86820000      69.18340000      44.02580000
Pb      18.86820000      69.18340000      50.31520000
Pb      18.86820000      69.18340000      56.60460000
Pb      18.86820000      69.18340000      62.89400000
Pb      18.86820000      69.18340000      69.18340000
Pb      25.15760000       0.00000000       0.00000000
Pb      25.15760000       0.00000000       6.28940000
Pb      25.15760000       0.00000000      12.57880000
Pb      25.15760000       0.00000000      18.86820000
Pb      25.15760000       0.00000000      25.15760000
Pb      25.15760000       0.00000000      31.44700000
Pb      25.15760000       0.00000000      37.73640000
Pb      25.15760000       0.00000000      44.02580000
Pb      25.15760000       0.00000000      50.31520000
Pb      25.15760000       0.00000000      56.60460000
Pb      25.15760000       0.00000000      62.89400000
Pb      25.15760000       0.00000000      69.18340000
Pb      25.15760000       6.28940000       0.00000000
Pb      25.15760000       6.28940000       6.28940000
Pb      25.15760000       6.28940000      12.57880000
Pb      25.15760000       6.28940000      18.86820000
Pb      25.15760000       6.28940000      25.15760000
Pb      25.15760000       6.28940000      31.44700000
Pb      25.15760000       6.28940000      37.73640000
Pb      25.15760000       6.28940000      44.02580000
Pb      25.15760000       6.28940000      50.31520000
Pb      25.15760000       6.28940000      56.60460000
Pb      25.15760000       6.28940000      62.89400000
Pb      25.15760000       6.28940000      69.18340000
Pb      25.15760000      12.57880000       0.00000000
Pb      25.15760000      12.57880000       6.28940000
Pb      25.15760000      12.57880000      12.57880000
Pb      25.15760000      12.57880000      18.86820000
Pb      25.15760000      12.57880000      25.15760000
Pb      25.15760000      12.57880000      31.44700000
Pb      25.15760000      12.57880000      37.73640000
Pb      25.15760000      12.57880000      44.02580000
Pb      25.15760000      12.57880000      50.31520000
Pb      25.15760000      12.57880000      56.60460000
Pb      25.15760000      12.57880000      62.89400000
Pb      25.15760000      12.57880000      69.18340000
Pb      25.15760000      18.86820000       0.00000000
Pb      25.15760000      18.86820000       6.28940000
Pb      25.15760000      18.86820000      12.57880000
Pb      25.15760000      18.86820000      18.86820000
Pb      25.15760000      18.86820000      25.15760000
Pb      25.15760000      18.86820000      31.44700000
Pb      25.15760000      18.86820000      37.73640000
Pb      25.15760000      18.86820000      44.02580000
Pb      25.15760000      18.86820000      50.31520000
Pb      25.15760000      18.86820000      56.60460000
Pb      25.15760000      18.86820000      62.89400000
Pb      25.15760000      18.86820000      69.18340000
Pb      25.15760000      25.15760000       0.00000000
Pb      25.15760000      25.15760000       6.28940000
Pb      25.15760000      25.15760000      12.57880000
Pb      25.15760000      25.15760000      18.86820000
Pb      25.15760000      25.15760000      25.15760000
Pb      25.15760000      25.15760000      31.44700000
Pb      25.15760000      25.15760000      37.73640000
Pb      25.15760000      25.15760000      44.02580000
Pb      25.15760000      25.15760000      50.31520000
Pb      25.15760000      25.15760000      56.60460000
Pb      25.15760000      25.15760000      62.89400000
Pb      25.15760000      25.15760000      69.18340000
Pb      25.15760000      31.44700000       0.00000000
Pb      25.15760000      31.44700000       6.28940000
Pb      25.15760000      31.44700000      12.57880000
Pb      25.15760000      31.44700000      18.86820000
Pb      25.15760000      31.44700000      25.15760000
Pb      25.15760000      31.44700000      31.44700000
Pb      25.15760000      31.44700000      37.73640000
Pb      25.15760000      31.44700000      44.02580000
Pb      25.15760000      31.44700000      50.31520000
Pb      25.15760000      31.44700000      56.60460000
Pb      25.15760000      31.44700000      62.89400000
Pb      25.15760000      31.44700000      69.18340000
Pb      25.15760000      37.73640000       0.00000000
Pb      25.15760000      37.73640000       6.28940000
Pb      25.15760000      37.73640000      12.57880000
Pb      25.15760000      37.73640000      18.86820000
Pb      25.15760000      37.73640000      25.15760000
Pb      25.15760000      37.73640000      31.44700000
Pb      25.15760000      37.73640000      37.73640000
Pb      25.15760000      37.73640000      44.02580000
Pb      25.15760000      37.73640000      50.31520000
Pb      25.15760000      37.73640000      56.60460000
Pb      25.15760000      37.73640000      62.89400000
Pb      25.15760000      37.73640000      69.18340000
Pb      25.15760000      44.02580000       0.00000000
Pb      25.15760000      44.02580000       6.28940000
Pb      25.15760000      44.02580000      12.57880000
Pb      25.15760000      44.02580000      18.86820000
Pb      25.15760000      44.02580000      25.15760000
Pb      25.15760000      44.02580000      31.44700000
Pb      25.15760000      44.02580000      37.73640000
Pb      25.15760000      44.02580000      44.02580000
Pb      25.15760000      44.02580000      50.31520000
Pb      25.15760000      44.02580000      56.60460000
Pb      25.15760000      44.02580000      62.89400000
Pb      25.15760000      44.02580000      69.18340000
Pb      25.15760000      50.31520000       0.00000000
Pb      25.15760000      50.31520000       6.28940000
Pb      25.15760000      50.31520000      12.57880000
Pb      25.15760000      50.31520000      18.86820000
Pb      25.15760000      50.31520000      25.15760000
Pb      25.15760000      50.31520000      31.44700000
Pb      25.15760000      50.31520000      37.73640000
Pb      25.15760000      50.31520000      44.02580000
Pb      25.15760000      50.31520000      50.31520000
Pb      25.15760000      50.31520000      56.60460000
Pb      25.15760000      50.31520000      62.89400000
Pb      25.15760000      50.31520000      69.18340000
Pb      25.15760000      56.60460000       0.00000000
Pb      25.15760000      56.60460000       6.28940000
Pb      25.15760000      56.60460000      12.57880000
Pb      25.15760000      56.60460000      18.86820000
Pb      25.15760000      56.60460000      25.15760000
Pb      25.15760000      56.60460000      31.44700000
Pb      25.15760000      56.60460000      37.73640000
Pb      25.15760000      56.60460000      44.02580000
Pb      25.15760000      56.60460000      50.31520000
Pb      25.15760000      56.60460000      56.60460000
Pb      25.15760000      56.60460000      62.89400000
Pb      25.15760000      56.60460000      69.18340000
Pb      25.15760000      62.89400000       0.00000000
Pb      25.15760000      62.89400000       6.28940000
Pb      25.15760000      62.89400000      12.57880000
Pb      25.15760000      62.89400000      18.86820000
Pb      25.15760000      62.89400000      25.15760000
Pb      25.15760000      62.89400000      31.44700000
Pb      25.15760000      62.89400000      37.73640000
Pb      25.15760000      62.89400000      44.02580000
Pb      25.15760000      62.89400000      50.31520000
Pb      25.15760000      62.89400000      56.60460000
Pb      25.15760000      62.89400000      62.89400000
Pb      25.15760000      62.89400000      69.18340000
Pb      25.15760000      69.18340000       0.00000000
Pb      25.15760000      69.18340000       6.28940000
Pb      25.15760000      69.18340000      12.57880000
Pb      25.15760000      69.18340000      18.86820000
Pb      25.15760000      69.18340000      25.15760000
Pb      25.15760000      69.18340000      31.44700000
Pb      25.15760000      69.18340000      37.73640000
Pb      25.15760000      69.18340000      44.02580000
Pb      25.15760000      69.18340000      50.31520000
Pb      25.15760000      69.18340000      56.60460000
Pb      25.15760000      69.18340000      62.89400000
Pb      25.15760000      69.18340000      69.18340000
Pb      31.44700000       0.00000000       0.00000000
Pb      31.44700000       0.00000000       6.28940000
Pb      31.44700000       0.00000000      12.57880000
Pb      31.44700000       0.00000000      18.86820000
Pb      31.44700000       0.00000000      25.15760000
Pb      31.44700000       0.00000000      31.44700000
Pb      31.44700000       0.00000000      37.73640000
Pb      31.44700000       0.00000000      44.02580000
Pb      31.44700000       0.00000000      50.31520000
Pb      31.44700000       0.00000000      56.60460000
Pb      31.44700000       0.00000000      62.89400000
Pb      31.44700000       0.00000000      69.18340000
Pb      31.44700000       6.28940000       0.00000000
Pb      31.44700000       6.28940000       6.28940000
Pb      31.44700000       6.28940000      12.57880000
Pb      31.44700000       6.28940000      18.86820000
Pb      31.44700000       6.28940000      25.15760000
Pb      31.44700000       6.28940000      31.44700000
Pb      31.44700000       6.28940000      37.73640000
Pb      31.44700000       6.28940000      44.02580000
Pb      31.44700000       6.28940000      50.31520000
Pb      31.44700000       6.28940000      56.60460000
Pb      31.44700000       6.28940000      62.89400000
Pb      31.44700000       6.28940000      69.18340000
Pb      31.44700000      12.57880000       0.00000000
Pb      31.44700000      12.57880000       6.28940000
Pb      31.44700000      12.57880000      12.57880000
Pb      31.44700000      12.57880000      18.86820000
Pb      31.44700000      12.57880000      25.15760000
Pb      31.44700000      12.57880000      31.44700000
Pb      31.44700000      12.57880000      37.73640000
Pb      31.44700000      12.57880000      44.02580000
Pb      31.44700000      12.57880000      50.31520000
Pb      31.44700000      12.57880000      56.60460000
Pb      31.44700000      12.57880000      62.89400000
Pb      31.44700000      12.57880000      69.18340000
Pb      31.44700000      18.86820000       0.00000000
Pb      31.44700000      18.86820000       6.28940000
Pb      31.44700000      18.86820000      12.57880000
Pb      31.44700000      18.86820000      18.86820000
Pb      31.44700000      18.86820000      25.15760000
Pb      31.44700000      18.86820000      31.44700000
Pb      31.44700000      18.86820000      37.73640000
Pb      31.44700000      18.86820000      44.02580000
Pb      31.44700000      18.86820000      50.31520000
Pb      31.44700000      18.86820000      56.60460000
Pb      31.44700000      18.86820000      62.89400000
Pb      31.44700000      18.86820000      69.18340000
Pb      31.44700000      25.15760000       0.00000000
Pb      31.44700000      25.15760000       6.28940000
Pb      31.44700000      25.15760000      12.57880000
Pb      31.44700000      25.15760000      18.86820000
Pb      31.44700000      25.15760000      25.15760000
Pb      31.44700000      25.15760000      31.44700000
Pb      31.44700000      25.15760000      37.73640000
Pb      31.44700000      25.15760000      44.02580000
Pb      31.44700000      25.15760000      50.31520000
Pb      31.44700000      25.15760000      56.60460000
Pb      31.44700000      25.15760000      62.89400000
Pb      31.44700000      25.15760000      69.18340000
Pb      31.44700000      31.44700000       0.00000000
Pb      31.44700000      31.44700000       6.28940000
Pb      31.44700000      31.44700000      12.57880000
Pb      31.44700000      31.44700000      18.86820000
Pb      31.44700000      31.44700000      25.15760000
Pb      31.44700000      31.44700000      31.44700000
Pb      31.44700000      31.44700000      37.73640000
Pb      31.44700000      31.44700000      44.02580000
Pb      31.44700000      31.44700000      50.31520000
Pb      31.44700000      31.44700000      56.60460000
Pb      31.44700000      31.44700000      62.89400000
Pb      31.44700000      31.44700000      69.18340000
Pb      31.44700000      37.73640000       0.00000000
Pb      31.44700000      37.73640000       6.28940000
Pb      31.44700000      37.73640000      12.57880000
Pb      31.44700000      37.73640000      18.86820000
Pb      31.44700000      37.73640000      25.15760000
Pb      31.44700000      37.73640000      31.44700000
Pb      31.44700000      37.73640000      37.73640000
Pb      31.44700000      37.73640000      44.02580000
Pb      31.44700000      37.73640000      50.31520000
Pb      31.44700000      37.73640000      56.60460000
Pb      31.44700000      37.73640000      62.89400000
Pb      31.44700000      37.73640000      69.18340000
Pb      31.44700000      44.02580000       0.00000000
Pb      31.44700000      44.02580000       6.28940000
Pb      31.44700000      44.02580000      12.57880000
Pb      31.44700000      44.02580000      18.86820000
Pb      31.44700000      44.02580000      25.15760000
Pb      31.44700000      44.02580000      31.44700000
Pb      31.44700000      44.02580000      37.73640000
Pb      31.44700000      44.02580000      44.02580000
Pb      31.44700000      44.02580000      50.31520000
Pb      31.44700000      44.02580000      56.60460000
Pb      31.44700000      44.02580000      62.89400000
Pb      31.44700000      44.02580000      69.18340000
Pb      31.44700000      50.31520000       0.00000000
Pb      31.44700000      50.31520000       6.28940000
Pb      31.44700000      50.31520000      12.57880000
Pb      31.44700000      50.31520000      18.86820000
Pb      31.44700000      50.31520000      25.15760000
Pb      31.44700000      50.31520000      31.44700000
Pb      31.44700000      50.31520000      37.73640000
Pb      31.44700000      50.31520000      44.02580000
Pb      31.44700000      50.31520000      50.31520000
Pb      31.44700000      50.31520000      56.60460000
Pb      31.44700000      50.31520000      62.89400000
Pb      31.44700000      50.31520000      69.18340000
Pb      31.44700000      56.60460000       0.00000000
Pb      31.44700000      56.60460000       6.28940000
Pb      31.44700000      56.60460000      12.57880000
Pb      31.44700000      56.60460000      18.86820000
Pb      31.44700000      56.60460000      25.15760000
Pb      31.44700000      56.60460000      31.44700000
Pb      31.44700000      56.60460000      37.73640000
Pb      31.44700000      56.60460000      44.02580000
Pb      31.44700000      56.60460000      50.31520000
Pb      31.44700000      56.60460000      56.60460000
Pb      31.44700000      56.60460000      62.89400000
Pb      31.44700000      56.60460000      69.18340000
Pb      31.44700000      62.89400000       0.00000000
Pb      31.44700000      62.89400000       6.28940000
Pb      31.44700000      62.89400000      12.57880000
Pb      31.44700000      62.89400000      18.86820000
Pb      31.44700000      62.89400000      25.15760000
Pb      31.44700000      62.89400000      31.44700000
Pb      31.44700000      62.89400000      37.73640000
Pb      31.44700000      62.89400000      44.02580000
Pb      31.44700000      62.89400000      50.31520000
Pb      31.44700000      62.89400000      56.60460000
Pb      31.44700000      62.89400000      62.89400000
Pb      31.44700000      62.89400000      69.18340000
Pb      31.44700000      69.18340000       0.00000000
Pb      31.44700000      69.18340000       6.28940000
Pb      31.44700000      69.18340000      12.57880000
Pb      31.44700000      69.18340000      18.86820000
Pb      31.44700000      69.18340000      25.15760000
Pb      31.44700000      69.18340000      31.44700000
Pb      31.44700000      69.18340000      37.73640000
Pb      31.44700000      69.18340000      44.02580000
Pb      31.44700000      69.18340000      50.31520000
Pb      31.44700000      69.18340000      56.60460000
Pb      31.44700000      69.18340000      62.89400000
Pb      31.44700000      69.18340000      69.18340000
Pb      37.73640000       0.00000000       0.00000000
Pb      37.73640000       0.00000000       6.28940000
Pb      37.73640000       0.00000000      12.57880000
Pb      37.73640000       0.00000000      18.86820000
Pb      37.73640000       0.00000000      25.15760000
Pb      37.73640000       0.00000000      31.44700000
Pb      37.73640000       0.00000000      37.73640000
Pb      37.73640000       0.00000000      44.02580000
Pb      37.73640000       0.00000000      50.31520000
Pb      37.73640000       0.00000000      56.60460000
Pb      37.73640000       0.00000000      62.89400000
Pb      37.73640000       0.00000000      69.18340000
Pb      37.73640000       6.28940000       0.00000000
Pb      37.73640000       6.28940000       6.28940000
Pb      37.73640000       6.28940000      12.57880000
Pb      37.73640000       6.28940000      18.86820000
Pb      37.73640000       6.28940000      25.15760000
Pb      37.73640000       6.28940000      31.44700000
Pb      37.73640000       6.28940000      37.73640000
Pb      37.73640000       6.28940000      44.02580000
Pb      37.73640000       6.28940000      50.31520000
Pb      37.73640000       6.28940000      56.60460000
Pb      37.73640000       6.28940000      62.89400000
Pb      37.73640000       6.28940000      69.18340000
Pb      37.73640000      12.57880000       0.00000000
Pb      37.73640000      12.57880000       6.28940000
Pb      37.73640000      12.57880000      12.57880000
Pb      37.73640000      12.57880000      18.86820000
Pb      37.73640000      12.57880000      25.15760000
Pb      37.73640000      12.57880000      31.44700000
Pb      37.73640000      12.57880000      37.73640000
Pb      37.73640000      12.57880000      44.02580000
Pb      37.73640000      12.57880000      50.31520000
Pb      37.73640000      12.57880000      56.60460000
Pb      37.73640000      12.57880000      62.89400000
Pb      37.73640000      12.57880000      69.18340000
Pb      37.73640000      18.86820000       0.00000000
Pb      37.73640000      18.86820000       6.28940000
Pb      37.73640000      18.86820000      12.57880000
Pb      37.73640000      18.86820000      18.86820000
Pb      37.73640000      18.86820000      25.15760000
Pb      37.73640000      18.86820000      31.44700000
Pb      37.73640000      18.86820000      37.73640000
Pb      37.73640000      18.86820000      44.02580000
Pb      37.73640000      18.86820000      50.31520000
Pb      37.73640000      18.86820000      56.60460000
Pb      37.73640000      18.86820000      62.89400000
Pb      37.73640000      18.86820000      69.18340000
Pb      37.73640000      25.15760000       0.00000000
Pb      37.73640000      25.15760000       6.28940000
Pb      37.73640000      25.15760000      12.57880000
Pb      37.73640000      25.15760000      18.86820000
Pb      37.73640000      25.15760000      25.15760000
Pb      37.73640000      25.15760000      31.44700000
Pb      37.73640000      25.15760000      37.73640000
Pb      37.73640000      25.15760000      44.02580000
Pb      37.73640000      25.15760000      50.31520000
Pb      37.73640000      25.15760000      56.60460000
Pb      37.73640000      25.15760000      62.89400000
Pb      37.73640000      25.15760000      69.18340000
Pb      37.73640000      31.44700000       0.00000000
Pb      37.73640000      31.44700000       6.28940000
Pb      37.73640000      31.44700000      12.57880000
Pb      37.73640000      31.44700000      18.86820000
Pb      37.73640000      31.44700000      25.15760000
Pb      37.73640000      31.44700000      31.44700000
Pb      37.73640000      31.44700000      37.73640000
Pb      37.73640000      31.44700000      44.02580000
Pb      37.73640000      31.44700000      50.31520000
Pb      37.73640000      31.44700000      56.60460000
Pb      37.73640000      31.44700000      62.89400000
Pb      37.73640000      31.44700000      69.18340000
Pb      37.73640000      37.73640000       0.00000000
Pb      37.73640000      37.73640000       6.28940000
Pb      37.73640000      37.73640000      12.57880000
Pb      37.73640000      37.73640000      18.86820000
Pb      37.73640000      37.73640000      25.15760000
Pb      37.73640000      37.73640000      31.44700000
Pb      37.73640000      37.73640000      37.73640000
Pb      37.73640000      37.73640000      44.02580000
Pb      37.73640000      37.73640000      50.31520000
Pb      37.73640000      37.73640000      56.60460000
Pb      37.73640000      37.73640000      62.89400000
Pb      37.73640000      37.73640000      69.18340000
Pb      37.73640000      44.02580000       0.00000000
Pb      37.73640000      44.02580000       6.28940000
Pb      37.73640000      44.02580000      12.57880000
Pb      37.73640000      44.02580000      18.86820000
Pb      37.73640000      44.02580000      25.15760000
Pb      37.73640000      44.02580000      31.44700000
Pb      37.73640000      44.02580000      37.73640000
Pb      37.73640000      44.02580000      44.02580000
Pb      37.73640000      44.02580000      50.31520000
Pb      37.73640000      44.02580000      56.60460000
Pb      37.73640000      44.02580000      62.89400000
Pb      37.73640000      44.02580000      69.18340000
Pb      37.73640000      50.31520000       0.00000000
Pb      37.73640000      50.31520000       6.28940000
Pb      37.73640000      50.31520000      12.57880000
Pb      37.73640000      50.31520000      18.86820000
Pb      37.73640000      50.31520000      25.15760000
Pb      37.73640000      50.31520000      31.44700000
Pb      37.73640000      50.31520000      37.73640000
Pb      37.73640000      50.31520000      44.02580000
Pb      37.73640000      50.31520000      50.31520000
Pb      37.73640000      50.31520000      56.60460000
Pb      37.73640000      50.31520000      62.89400000
Pb      37.73640000      50.31520000      69.18340000
Pb      37.73640000      56.60460000       0.00000000
Pb      37.73640000      56.60460000       6.28940000
Pb      37.73640000      56.60460000      12.57880000
Pb      37.73640000      56.60460000      18.86820000
Pb      37.73640000      56.60460000      25.15760000
Pb      37.73640000      56.60460000      31.44700000
Pb      37.73640000      56.60460000      37.73640000
Pb      37.73640000      56.60460000      44.02580000
Pb      37.73640000      56.60460000      50.31520000
Pb      37.73640000      56.60460000      56.60460000
Pb      37.73640000      56.60460000      62.89400000
Pb      37.73640000      56.60460000      69.18340000
Pb      37.73640000      62.89400000       0.00000000
Pb      37.73640000      62.89400000       6.28940000
Pb      37.73640000      62.89400000      12.57880000
Pb      37.73640000      62.89400000      18.86820000
Pb      37.73640000      62.89400000      25.15760000
Pb      37.73640000      62.89400000      31.44700000
Pb      37.73640000      62.89400000      37.73640000
Pb      37.73640000      62.89400000      44.02580000
Pb      37.73640000      62.89400000      50.31520000
Pb      37.73640000      62.89400000      56.60460000
Pb      37.73640000      62.89400000      62.89400000
Pb      37.73640000      62.89400000      69.18340000
Pb      37.73640000      69.18340000       0.00000000
Pb      37.73640000      69.18340000       6.28940000
Pb      37.73640000      69.18340000      12.57880000
Pb      37.73640000      69.18340000      18.86820000
Pb      37.73640000      69.18340000      25.15760000
Pb      37.73640000      69.18340000      31.44700000
Pb      37.73640000      69.18340000      37.73640000
Pb      37.73640000      69.18340000      44.02580000
Pb      37.73640000      69.18340000      50.31520000
Pb      37.73640000      69.18340000      56.60460000
Pb      37.73640000      69.18340000      62.89400000
Pb      37.73640000      69.18340000      69.18340000
Pb      44.02580000       0.00000000       0.00000000
Pb      44.02580000       0.00000000       6.28940000
Pb      44.02580000       0.00000000      12.57880000
Pb      44.02580000       0.00000000      18.86820000
Pb      44.02580000       0.00000000      25.15760000
Pb      44.02580000       0.00000000      31.44700000
Pb      44.02580000       0.00000000      37.73640000
Pb      44.02580000       0.00000000      44.02580000
Pb      44.02580000       0.00000000      50.31520000
Pb      44.02580000       0.00000000      56.60460000
Pb      44.02580000       0.00000000      62.89400000
Pb      44.02580000       0.00000000      69.18340000
Pb      44.02580000       6.28940000       0.00000000
Pb      44.02580000       6.28940000       6.28940000
Pb      44.02580000       6.28940000      12.57880000
Pb      44.02580000       6.28940000      18.86820000
Pb      44.02580000       6.28940000      25.15760000
Pb      44.02580000       6.28940000      31.44700000
Pb      44.02580000       6.28940000      37.73640000
Pb      44.02580000       6.28940000      44.02580000
Pb      44.02580000       6.28940000      50.31520000
Pb      44.02580000       6.28940000      56.60460000
Pb      44.02580000       6.28940000      62.89400000
Pb      44.02580000       6.28940000      69.18340000
Pb      44.02580000      12.57880000       0.00000000
Pb      44.02580000      12.57880000       6.28940000
Pb      44.02580000      12.57880000      12.57880000
Pb      44.02580000      12.57880000      18.86820000
Pb      44.02580000      12.57880000      25.15760000
Pb      44.02580000      12.57880000      31.44700000
Pb      44.02580000      12.57880000      37.73640000
Pb      44.02580000      12.57880000      44.02580000
Pb      44.02580000      12.57880000      50.31520000
Pb      44.02580000      12.57880000      56.60460000
Pb      44.02580000      12.57880000      62.89400000
Pb      44.02580000      12.57880000      69.18340000
Pb      44.02580000      18.86820000       0.00000000
Pb      44.02580000      18.86820000       6.28940000
Pb      44.02580000      18.86820000      12.57880000
Pb      44.02580000      18.86820000      18.86820000
Pb      44.02580000      18.86820000      25.15760000
Pb      44.02580000      18.86820000      31.44700000
Pb      44.02580000      18.86820000      37.73640000
Pb      44.02580000      18.86820000      44.02580000
Pb      44.02580000      18.86820000      50.31520000
Pb      44.02580000      18.86820000      56.60460000
Pb      44.02580000      18.86820000      62.89400000
Pb      44.02580000      18.86820000      69.18340000
Pb      44.02580000      25.15760000       0.00000000
Pb      44.02580000      25.15760000       6.28940000
Pb      44.02580000      25.15760000      12.57880000
Pb      44.02580000      25.15760000      18.86820000
Pb      44.02580000      25.15760000      25.15760000
Pb      44.02580000      25.15760000      31.44700000
Pb      44.02580000      25.15760000      37.73640000
Pb      44.02580000      25.15760000      44.02580000
Pb      44.02580000      25.15760000      50.31520000
Pb      44.02580000      25.15760000      56.60460000
Pb      44.02580000      25.15760000      62.89400000
Pb      44.02580000      25.15760000      69.18340000
Pb      44.02580000      31.44700000       0.00000000
Pb      44.02580000      31.44700000       6.28940000
Pb      44.02580000      31.44700000      12.57880000
Pb      44.02580000      31.44700000      18.86820000
Pb      44.02580000      31.44700000      25.15760000
Pb      44.02580000      31.44700000      31.44700000
Pb      44.02580000      31.44700000      37.73640000
Pb      44.02580000      31.44700000      44.02580000
Pb      44.02580000      31.44700000      50.31520000
Pb      44.02580000      31.44700000      56.60460000
Pb      44.02580000      31.44700000      62.89400000
Pb      44.02580000      31.44700000      69.18340000
Pb      44.02580000      37.73640000       0.00000000
Pb      44.02580000      37.73640000       6.28940000
Pb      44.02580000      37.73640000      12.57880000
Pb      44.02580000      37.73640000      18.86820000
Pb      44.02580000      37.73640000      25.15760000
Pb      44.02580000      37.73640000      31.44700000
Pb      44.02580000      37.73640000      37.73640000
Pb      44.02580000      37.73640000      44.02580000
Pb      44.02580000      37.73640000      50.31520000
Pb      44.02580000      37.73640000      56.60460000
Pb      44.02580000      37.73640000      62.89400000
Pb      44.02580000      37.73640000      69.18340000
Pb      44.02580000      44.02580000       0.00000000
Pb      44.02580000      44.02580000       6.28940000
Pb      44.02580000      44.02580000      12.57880000
Pb      44.02580000      44.02580000      18.86820000
Pb      44.02580000      44.02580000      25.15760000
Pb      44.02580000      44.02580000      31.44700000
Pb      44.02580000      44.02580000      37.73640000
Pb      44.02580000      44.02580000      44.02580000
Pb      44.02580000      44.02580000      50.31520000
Pb      44.02580000      44.02580000      56.60460000
Pb      44.02580000      44.02580000      62.89400000
Pb      44.02580000      44.02580000      69.18340000
Pb      44.02580000      50.31520000       0.00000000
Pb      44.02580000      50.31520000       6.28940000
Pb      44.02580000      50.31520000      12.57880000
Pb      44.02580000      50.31520000      18.86820000
Pb      44.02580000      50.31520000      25.15760000
Pb      44.02580000      50.31520000      31.44700000
Pb      44.02580000      50.31520000      37.73640000
Pb      44.02580000      50.31520000      44.02580000
Pb      44.02580000      50.31520000      50.31520000
Pb      44.02580000      50.31520000      56.60460000
Pb      44.02580000      50.31520000      62.89400000
Pb      44.02580000      50.31520000      69.18340000
Pb      44.02580000      56.60460000       0.00000000
Pb      44.02580000      56.60460000       6.28940000
Pb      44.02580000      56.60460000      12.57880000
Pb      44.02580000      56.60460000      18.86820000
Pb      44.02580000      56.60460000      25.15760000
Pb      44.02580000      56.60460000      31.44700000
Pb      44.02580000      56.60460000      37.73640000
Pb      44.02580000      56.60460000      44.02580000
Pb      44.02580000      56.60460000      50.31520000
Pb      44.02580000      56.60460000      56.60460000
Pb      44.02580000      56.60460000      62.89400000
Pb      44.02580000      56.60460000      69.18340000
Pb      44.02580000      62.89400000       0.00000000
Pb      44.02580000      62.89400000       6.28940000
Pb      44.02580000      62.89400000      12.57880000
Pb      44.02580000      62.89400000      18.86820000
Pb      44.02580000      62.89400000      25.15760000
Pb      44.02580000      62.89400000      31.44700000
Pb      44.02580000      62.89400000      37.73640000
Pb      44.02580000      62.89400000      44.02580000
Pb      44.02580000      62.89400000      50.31520000
Pb      44.02580000      62.89400000      56.60460000
Pb      44.02580000      62.89400000      62.89400000
Pb      44.02580000      62.89400000      69.18340000
Pb      44.02580000      69.18340000       0.00000000
Pb      44.02580000      69.18340000       6.28940000
Pb      44.02580000      69.18340000      12.57880000
Pb      44.02580000      69.18340000      18.86820000
Pb      44.02580000      69.18340000      25.15760000
Pb      44.02580000      69.18340000      31.44700000
Pb      44.02580000      69.18340000      37.73640000
Pb      44.02580000      69.18340000      44.02580000
Pb      44.02580000      69.18340000      50.31520000
Pb      44.02580000      69.18340000      56.60460000
Pb      44.02580000      69.18340000      62.89400000
Pb      44.02580000      69.18340000      69.18340000
Pb      50.31520000       0.00000000       0.00000000
Pb      50.31520000       0.00000000       6.28940000
Pb      50.31520000       0.00000000      12.57880000
Pb      50.31520000       0.00000000      18.86820000
Pb      50.31520000       0.00000000      25.15760000
Pb      50.31520000       0.00000000      31.44700000
Pb      50.31520000       0.00000000      37.73640000
Pb      50.31520000       0.00000000      44.02580000
Pb      50.31520000       0.00000000      50.31520000
Pb      50.31520000       0.00000000      56.60460000
Pb      50.31520000       0.00000000      62.89400000
Pb      50.31520000       0.00000000      69.18340000
Pb      50.31520000       6.28940000       0.00000000
Pb      50.31520000       6.28940000       6.28940000
Pb      50.31520000       6.28940000      12.57880000
Pb      50.31520000       6.28940000      18.86820000
Pb      50.31520000       6.28940000      25.15760000
Pb      50.31520000       6.28940000      31.44700000
Pb      50.31520000       6.28940000      37.73640000
Pb      50.31520000       6.28940000      44.02580000
Pb      50.31520000       6.28940000      50.31520000
Pb      50.31520000       6.28940000      56.60460000
Pb      50.31520000       6.28940000      62.89400000
Pb      50.31520000       6.28940000      69.18340000
Pb      50.31520000      12.57880000       0.00000000
Pb      50.31520000      12.57880000       6.28940000
Pb      50.31520000      12.57880000      12.57880000
Pb      50.31520000      12.57880000      18.86820000
Pb      50.31520000      12.57880000      25.15760000
Pb      50.31520000      12.57880000      31.44700000
Pb      50.31520000      12.57880000      37.73640000
Pb      50.31520000      12.57880000      44.02580000
Pb      50.31520000      12.57880000      50.31520000
Pb      50.31520000      12.57880000      56.60460000
Pb      50.31520000      12.57880000      62.89400000
Pb      50.31520000      12.57880000      69.18340000
Pb      50.31520000      18.86820000       0.00000000
Pb      50.31520000      18.86820000       6.28940000
Pb      50.31520000      18.86820000      12.57880000
Pb      50.31520000      18.86820000      18.86820000
Pb      50.31520000      18.86820000      25.15760000
Pb      50.31520000      18.86820000      31.44700000
Pb      50.31520000      18.86820000      37.73640000
Pb      50.31520000      18.86820000      44.02580000
Pb      50.31520000      18.86820000      50.31520000
Pb      50.31520000      18.86820000      56.60460000
Pb      50.31520000      18.86820000      62.89400000
Pb      50.31520000      18.86820000      69.18340000
Pb      50.31520000      25.15760000       0.00000000
Pb      50.31520000      25.15760000       6.28940000
Pb      50.31520000      25.15760000      12.57880000
Pb      50.31520000      25.15760000      18.86820000
Pb      50.31520000      25.15760000      25.15760000
Pb      50.31520000      25.15760000      31.44700000
Pb      50.31520000      25.15760000      37.73640000
Pb      50.31520000      25.15760000      44.02580000
Pb      50.31520000      25.15760000      50.31520000
Pb      50.31520000      25.15760000      56.60460000
Pb      50.31520000      25.15760000      62.89400000
Pb      50.31520000      25.15760000      69.18340000
Pb      50.31520000      31.44700000       0.00000000
Pb      50.31520000      31.44700000       6.28940000
Pb      50.31520000      31.44700000      12.57880000
Pb      50.31520000      31.44700000      18.86820000
Pb      50.31520000      31.44700000      25.15760000
Pb      50.31520000      31.44700000      31.44700000
Pb      50.31520000      31.44700000      37.73640000
Pb      50.31520000      31.44700000      44.02580000
Pb      50.31520000      31.44700000      50.31520000
Pb      50.31520000      31.44700000      56.60460000
Pb      50.31520000      31.44700000      62.89400000
Pb      50.31520000      31.44700000      69.18340000
Pb      50.31520000      37.73640000       0.00000000
Pb      50.31520000      37.73640000       6.28940000
Pb      50.31520000      37.73640000      12.57880000
Pb      50.31520000      37.73640000      18.86820000
Pb      50.31520000      37.73640000      25.15760000
Pb      50.31520000      37.73640000      31.44700000
Pb      50.31520000      37.73640000      37.73640000
Pb      50.31520000      37.73640000      44.02580000
Pb      50.31520000      37.73640000      50.31520000
Pb      50.31520000      37.73640000      56.60460000
Pb      50.31520000      37.73640000      62.89400000
Pb      50.31520000      37.73640000      69.18340000
Pb      50.31520000      44.02580000       0.00000000
Pb      50.31520000      44.02580000       6.28940000
Pb      50.31520000      44.02580000      12.57880000
Pb      50.31520000      44.02580000      18.86820000
Pb      50.31520000      44.02580000      25.15760000
Pb      50.31520000      44.02580000      31.44700000
Pb      50.31520000      44.02580000      37.73640000
Pb      50.31520000      44.02580000      44.02580000
Pb      50.31520000      44.02580000      50.31520000
Pb      50.31520000      44.02580000      56.60460000
Pb      50.31520000      44.02580000      62.89400000
Pb      50.31520000      44.02580000      69.18340000
Pb      50.31520000      50.31520000       0.00000000
Pb      50.31520000      50.31520000       6.28940000
Pb      50.31520000      50.31520000      12.57880000
Pb      50.31520000      50.31520000      18.86820000
Pb      50.31520000      50.31520000      25.15760000
Pb      50.31520000      50.31520000      31.44700000
Pb      50.31520000      50.31520000      37.73640000
Pb      50.31520000      50.31520000      44.02580000
Pb      50.31520000      50.31520000      50.31520000
Pb      50.31520000      50.31520000      56.60460000
Pb      50.31520000      50.31520000      62.89400000
Pb      50.31520000      50.31520000      69.18340000
Pb      50.31520000      56.60460000       0.00000000
Pb      50.31520000      56.60460000       6.28940000
Pb      50.31520000      56.60460000      12.57880000
Pb      50.31520000      56.60460000      18.86820000
Pb      50.31520000      56.60460000      25.15760000
Pb      50.31520000      56.60460000      31.44700000
Pb      50.31520000      56.60460000      37.73640000
Pb      50.31520000      56.60460000      44.02580000
Pb      50.31520000      56.60460000      50.31520000
Pb      50.31520000      56.60460000      56.60460000
Pb      50.31520000      56.60460000      62.89400000
Pb      50.31520000      56.60460000      69.18340000
Pb      50.31520000      62.89400000       0.00000000
Pb      50.31520000      62.89400000       6.28940000
Pb      50.31520000      62.89400000      12.57880000
Pb      50.31520000      62.89400000      18.86820000
Pb      50.31520000      62.89400000      25.15760000
Pb      50.31520000      62.89400000      31.44700000
Pb      50.31520000      62.89400000      37.73640000
Pb      50.31520000      62.89400000      44.02580000
Pb      50.31520000      62.89400000      50.31520000
Pb      50.31520000      62.89400000      56.60460000
Pb      50.31520000      62.89400000      62.89400000
Pb      50.31520000      62.89400000      69.18340000
Pb      50.31520000      69.18340000       0.00000000
Pb      50.31520000      69.18340000       6.28940000
Pb      50.31520000      69.18340000      12.57880000
Pb      50.31520000      69.18340000      18.86820000
Pb      50.31520000      69.18340000      25.15760000
Pb      50.31520000      69.18340000      31.44700000
Pb      50.31520000      69.18340000      37.73640000
Pb      50.31520000      69.18340000      44.02580000
Pb      50.31520000      69.18340000      50.31520000
Pb      50.31520000      69.18340000      56.60460000
Pb      50.31520000      69.18340000      62.89400000
Pb      50.31520000      69.18340000      69.18340000
Pb      56.60460000       0.00000000       0.00000000
Pb      56.60460000       0.00000000       6.28940000
Pb      56.60460000       0.00000000      12.57880000
Pb      56.60460000       0.00000000      18.86820000
Pb      56.60460000       0.00000000      25.15760000
Pb      56.60460000       0.00000000      31.44700000
Pb      56.60460000       0.00000000      37.73640000
Pb      56.60460000       0.00000000      44.02580000
Pb      56.60460000       0.00000000      50.31520000
Pb      56.60460000       0.00000000      56.60460000
Pb      56.60460000       0.00000000      62.89400000
Pb      56.60460000       0.00000000      69.18340000
Pb      56.60460000       6.28940000       0.00000000
Pb      56.60460000       6.28940000       6.28940000
Pb      56.60460000       6.28940000      12.57880000
Pb      56.60460000       6.28940000      18.86820000
Pb      56.60460000       6.28940000      25.15760000
Pb      56.60460000       6.28940000      31.44700000
Pb      56.60460000       6.28940000      37.73640000
Pb      56.60460000       6.28940000      44.02580000
Pb      56.60460000       6.28940000      50.31520000
Pb      56.60460000       6.28940000      56.60460000
Pb      56.60460000       6.28940000      62.89400000
Pb      56.60460000       6.28940000      69.18340000
Pb      56.60460000      12.57880000       0.00000000
Pb      56.60460000      12.57880000       6.28940000
Pb      56.60460000      12.57880000      12.57880000
Pb      56.60460000      12.57880000      18.86820000
Pb      56.60460000      12.57880000      25.15760000
Pb      56.60460000      12.57880000      31.44700000
Pb      56.60460000      12.57880000      37.73640000
Pb      56.60460000      12.57880000      44.02580000
Pb      56.60460000      12.57880000      50.31520000
Pb      56.60460000      12.57880000      56.60460000
Pb      56.60460000      12.57880000      62.89400000
Pb      56.60460000      12.57880000      69.18340000
Pb      56.60460000      18.86820000       0.00000000
Pb      56.60460000      18.86820000       6.28940000
Pb      56.60460000      18.86820000      12.57880000
Pb      56.60460000      18.86820000      18.86820000
Pb      56.60460000      18.86820000      25.15760000
Pb      56.60460000      18.86820000      31.44700000
Pb      56.60460000      18.86820000      37.73640000
Pb      56.60460000      18.86820000      44.02580000
Pb      56.60460000      18.86820000      50.31520000
Pb      56.60460000      18.86820000      56.60460000
Pb      56.60460000      18.86820000      62.89400000
Pb      56.60460000      18.86820000      69.18340000
Pb      56.60460000      25.15760000       0.00000000
Pb      56.60460000      25.15760000       6.28940000
Pb      56.60460000      25.15760000      12.57880000
Pb      56.60460000      25.15760000      18.86820000
Pb      56.60460000      25.15760000      25.15760000
Pb      56.60460000      25.15760000      31.44700000
Pb      56.60460000      25.15760000      37.73640000
Pb      56.60460000      25.15760000      44.02580000
Pb      56.60460000      25.15760000      50.31520000
Pb      56.60460000      25.15760000      56.60460000
Pb      56.60460000      25.15760000      62.89400000
Pb      56.60460000      25.15760000      69.18340000
Pb      56.60460000      31.44700000       0.00000000
Pb      56.60460000      31.44700000       6.28940000
Pb      56.60460000      31.44700000      12.57880000
Pb      56.60460000      31.44700000      18.86820000
Pb      56.60460000      31.44700000      25.15760000
Pb      56.60460000      31.44700000      31.44700000
Pb      56.60460000      31.44700000      37.73640000
Pb      56.60460000      31.44700000      44.02580000
Pb      56.60460000      31.44700000      50.31520000
Pb      56.60460000      31.44700000      56.60460000
Pb      56.60460000      31.44700000      62.89400000
Pb      56.60460000      31.44700000      69.18340000
Pb      56.60460000      37.73640000       0.00000000
Pb      56.60460000      37.73640000       6.28940000
Pb      56.60460000      37.73640000      12.57880000
Pb      56.60460000      37.73640000      18.86820000
Pb      56.60460000      37.73640000      25.15760000
Pb      56.60460000      37.73640000      31.44700000
Pb      56.60460000      37.73640000      37.73640000
Pb      56.60460000      37.73640000      44.02580000
Pb      56.60460000      37.73640000      50.31520000
Pb      56.60460000      37.73640000      56.60460000
Pb      56.60460000      37.73640000      62.89400000
Pb      56.60460000      37.73640000      69.18340000
Pb      56.60460000      44.02580000       0.00000000
Pb      56.60460000      44.02580000       6.28940000
Pb      56.60460000      44.02580000      12.57880000
Pb      56.60460000      44.02580000      18.86820000
Pb      56.60460000      44.02580000      25.15760000
Pb      56.60460000      44.02580000      31.44700000
Pb      56.60460000      44.02580000      37.73640000
Pb      56.60460000      44.02580000      44.02580000
Pb      56.60460000      44.02580000      50.31520000
Pb      56.60460000      44.02580000      56.60460000
Pb      56.60460000      44.02580000      62.89400000
Pb      56.60460000      44.02580000      69.18340000
Pb      56.60460000      50.31520000       0.00000000
Pb      56.60460000      50.31520000       6.28940000
Pb      56.60460000      50.31520000      12.57880000
Pb      56.60460000      50.31520000      18.86820000
Pb      56.60460000      50.31520000      25.15760000
Pb      56.60460000      50.31520000      31.44700000
Pb      56.60460000      50.31520000      37.73640000
Pb      56.60460000      50.31520000      44.02580000
Pb      56.60460000      50.31520000      50.31520000
Pb      56.60460000      50.31520000      56.60460000
Pb      56.60460000      50.31520000      62.89400000
Pb      56.60460000      50.31520000      69.18340000
Pb      56.60460000      56.60460000       0.00000000
Pb      56.60460000      56.60460000       6.28940000
Pb      56.60460000      56.60460000      12.57880000
Pb      56.60460000      56.60460000      18.86820000
Pb      56.60460000      56.60460000      25.15760000
Pb      56.60460000      56.60460000      31.44700000
Pb      56.60460000      56.60460000      37.73640000
Pb      56.60460000      56.60460000      44.02580000
Pb      56.60460000      56.60460000      50.31520000
Pb      56.60460000      56.60460000      56.60460000
Pb      56.60460000      56.60460000      62.89400000
Pb      56.60460000      56.60460000      69.18340000
Pb      56.60460000      62.89400000       0.00000000
Pb      56.60460000      62.89400000       6.28940000
Pb      56.60460000      62.89400000      12.57880000
Pb      56.60460000      62.89400000      18.86820000
Pb      56.60460000      62.89400000      25.15760000
Pb      56.60460000      62.89400000      31.44700000
Pb      56.60460000      62.89400000      37.73640000
Pb      56.60460000      62.89400000      44.02580000
Pb      56.60460000      62.89400000      50.31520000
Pb      56.60460000      62.89400000      56.60460000
Pb      56.60460000      62.89400000      62.89400000
Pb      56.60460000      62.89400000      69.18340000
Pb      56.60460000      69.18340000       0.00000000
Pb      56.60460000      69.18340000       6.28940000
Pb      56.60460000      69.18340000      12.57880000
Pb      56.60460000      69.18340000      18.86820000
Pb      56.60460000      69.18340000      25.15760000
Pb      56.60460000      69.18340000      31.44700000
Pb      56.60460000      69.18340000      37.73640000
Pb      56.60460000      69.18340000      44.02580000
Pb      56.60460000      69.18340000      50.31520000
Pb      56.60460000      69.18340000      56.60460000
Pb      56.60460000      69.18340000      62.89400000
Pb      56.60460000      69.18340000      69.18340000
Pb      62.89400000       0.00000000       0.00000000
Pb      62.89400000       0.00000000       6.28940000
Pb      62.89400000       0.00000000      12.57880000
Pb      62.89400000       0.00000000      18.86820000
Pb      62.89400000       0.00000000      25.15760000
Pb      62.89400000       0.00000000      31.44700000
Pb      62.89400000       0.00000000      37.73640000
Pb      62.89400000       0.00000000      44.02580000
Pb      62.89400000       0.00000000      50.31520000
Pb      62.89400000       0.00000000      56.60460000
Pb      62.89400000       0.00000000      62.89400000
Pb      62.89400000       0.00000000      69.18340000
Pb      62.89400000       6.28940000       0.00000000
Pb      62.89400000       6.28940000       6.28940000
Pb      62.89400000       6.28940000      12.57880000
Pb      62.89400000       6.28940000      18.86820000
Pb      62.89400000       6.28940000      25.15760000
Pb      62.89400000       6.28940000      31.44700000
Pb      62.89400000       6.28940000      37.73640000
Pb      62.89400000       6.28940000      44.02580000
Pb      62.89400000       6.28940000      50.31520000
Pb      62.89400000       6.28940000      56.60460000
Pb      62.89400000       6.28940000      62.89400000
Pb      62.89400000       6.28940000      69.18340000
Pb      62.89400000      12.57880000       0.00000000
Pb      62.89400000      12.57880000       6.28940000
Pb      62.89400000      12.57880000      12.57880000
Pb      62.89400000      12.57880000      18.86820000
Pb      62.89400000      12.57880000      25.15760000
Pb      62.89400000      12.57880000      31.44700000
Pb      62.89400000      12.57880000      37.73640000
Pb      62.89400000      12.57880000      44.02580000
Pb      62.89400000      12.57880000      50.31520000
Pb      62.89400000      12.57880000      56.60460000
Pb      62.89400000      12.57880000      62.89400000
Pb      62.89400000      12.57880000      69.18340000
Pb      62.89400000      18.86820000       0.00000000
Pb      62.89400000      18.86820000       6.28940000
Pb      62.89400000      18.86820000      12.57880000
Pb      62.89400000      18.86820000      18.86820000
Pb      62.89400000      18.86820000      25.15760000
Pb      62.89400000      18.86820000      31.44700000
Pb      62.89400000      18.86820000      37.73640000
Pb      62.89400000      18.86820000      44.02580000
Pb      62.89400000      18.86820000      50.31520000
Pb      62.89400000      18.86820000      56.60460000
Pb      62.89400000      18.86820000      62.89400000
Pb      62.89400000      18.86820000      69.18340000
Pb      62.89400000      25.15760000       0.00000000
Pb      62.89400000      25.15760000       6.28940000
Pb      62.89400000      25.15760000      12.57880000
Pb      62.89400000      25.15760000      18.86820000
Pb      62.89400000      25.15760000      25.15760000
Pb      62.89400000      25.15760000      31.44700000
Pb      62.89400000      25.15760000      37.73640000
Pb      62.89400000      25.15760000      44.02580000
Pb      62.89400000      25.15760000      50.31520000
Pb      62.89400000      25.15760000      56.60460000
Pb      62.89400000      25.15760000      62.89400000
Pb      62.89400000      25.15760000      69.18340000
Pb      62.89400000      31.44700000       0.00000000
Pb      62.89400000      31.44700000       6.28940000
Pb      62.89400000      31.44700000      12.57880000
Pb      62.89400000      31.44700000      18.86820000
Pb      62.89400000      31.44700000      25.15760000
Pb      62.89400000      31.44700000      31.44700000
Pb      62.89400000      31.44700000      37.73640000
Pb      62.89400000      31.44700000      44.02580000
Pb      62.89400000      31.44700000      50.31520000
Pb      62.89400000      31.44700000      56.60460000
Pb      62.89400000      31.44700000      62.89400000
Pb      62.89400000      31.44700000      69.18340000
Pb      62.89400000      37.73640000       0.00000000
Pb      62.89400000      37.73640000       6.28940000
Pb      62.89400000      37.73640000      12.57880000
Pb      62.89400000      37.73640000      18.86820000
Pb      62.89400000      37.73640000      25.15760000
Pb      62.89400000      37.73640000      31.44700000
Pb      62.89400000      37.73640000      37.73640000
Pb      62.89400000      37.73640000      44.02580000
Pb      62.89400000      37.73640000      50.31520000
Pb      62.89400000      37.73640000      56.60460000
Pb      62.89400000      37.73640000      62.89400000
Pb      62.89400000      37.73640000      69.18340000
Pb      62.89400000      44.02580000       0.00000000
Pb      62.89400000      44.02580000       6.28940000
Pb      62.89400000      44.02580000      12.57880000
Pb      62.89400000      44.02580000      18.86820000
Pb      62.89400000      44.02580000      25.15760000
Pb      62.89400000      44.02580000      31.44700000
Pb      62.89400000      44.02580000      37.73640000
Pb      62.89400000      44.02580000      44.02580000
Pb      62.89400000      44.02580000      50.31520000
Pb      62.89400000      44.02580000      56.60460000
Pb      62.89400000      44.02580000      62.89400000
Pb      62.89400000      44.02580000      69.18340000
Pb      62.89400000      50.31520000       0.00000000
Pb      62.89400000      50.31520000       6.28940000
Pb      62.89400000      50.31520000      12.57880000
Pb      62.89400000      50.31520000      18.86820000
Pb      62.89400000      50.31520000      25.15760000
Pb      62.89400000      50.31520000      31.44700000
Pb      62.89400000      50.31520000      37.73640000
Pb      62.89400000      50.31520000      44.02580000
Pb      62.89400000      50.31520000      50.31520000
Pb      62.89400000      50.31520000      56.60460000
Pb      62.89400000      50.31520000      62.89400000
Pb      62.89400000      50.31520000      69.18340000
Pb      62.89400000      56.60460000       0.00000000
Pb      62.89400000      56.60460000       6.28940000
Pb      62.89400000      56.60460000      12.57880000
Pb      62.89400000      56.60460000      18.86820000
Pb      62.89400000      56.60460000      25.15760000
Pb      62.89400000      56.60460000      31.44700000
Pb      62.89400000      56.60460000      37.73640000
Pb      62.89400000      56.60460000      44.02580000
Pb      62.89400000      56.60460000      50.31520000
Pb      62.89400000      56.60460000      56.60460000
Pb      62.89400000      56.60460000      62.89400000
Pb      62.89400000      56.60460000      69.18340000
Pb      62.89400000      62.89400000       0.00000000
Pb      62.89400000      62.89400000       6.28940000
Pb      62.89400000      62.89400000      12.57880000
Pb      62.89400000      62.89400000      18.86820000
Pb      62.89400000      62.89400000      25.15760000
Pb      62.89400000      62.89400000      31.44700000
Pb      62.89400000      62.89400000      37.73640000
Pb      62.89400000      62.89400000      44.02580000
Pb      62.89400000      62.89400000      50.31520000
Pb      62.89400000      62.89400000      56.60460000
Pb      62.89400000      62.89400000      62.89400000
Pb      62.89400000      62.89400000      69.18340000
Pb      62.89400000      69.18340000       0.00000000
Pb      62.89400000      69.18340000       6.28940000
Pb      62.89400000      69.18340000      12.57880000
Pb      62.89400000      69.18340000      18.86820000
Pb      62.89400000      69.18340000      25.15760000
Pb      62.89400000      69.18340000      31.44700000
Pb      62.89400000      69.18340000      37.73640000
Pb      62.89400000      69.18340000      44.02580000
Pb      62.89400000      69.18340000      50.31520000
Pb      62.89400000      69.18340000      56.60460000
Pb      62.89400000      69.18340000      62.89400000
Pb      62.89400000      69.18340000      69.18340000
Pb      69.18340000       0.00000000       0.00000000
Pb      69.18340000       0.00000000       6.28940000
Pb      69.18340000       0.00000000      12.57880000
Pb      69.18340000       0.00000000      18.86820000
Pb      69.18340000       0.00000000      25.15760000
Pb      69.18340000       0.00000000      31.44700000
Pb      69.18340000       0.00000000      37.73640000
Pb      69.18340000       0.00000000      44.02580000
Pb      69.18340000       0.00000000      50.31520000
Pb      69.18340000       0.00000000      56.60460000
Pb      69.18340000       0.00000000      62.89400000
Pb      69.18340000       0.00000000      69.18340000
Pb      69.18340000       6.28940000       0.00000000
Pb      69.18340000       6.28940000       6.28940000
Pb      69.18340000       6.28940000      12.57880000
Pb      69.18340000       6.28940000      18.86820000
Pb      69.18340000       6.28940000      25.15760000
Pb      69.18340000       6.28940000      31.44700000
Pb      69.18340000       6.28940000      37.73640000
Pb      69.18340000       6.28940000      44.02580000
Pb      69.18340000       6.28940000      50.31520000
Pb      69.18340000       6.28940000      56.60460000
Pb      69.18340000       6.28940000      62.89400000
Pb      69.18340000       6.28940000      69.18340000
Pb      69.18340000      12.57880000       0.00000000
Pb      69.18340000      12.57880000       6.28940000
Pb      69.18340000      12.57880000      12.57880000
Pb      69.18340000      12.57880000      18.86820000
Pb      69.18340000      12.57880000      25.15760000
Pb      69.18340000      12.57880000      31.44700000
Pb      69.18340000      12.57880000      37.73640000
Pb      69.18340000      12.57880000      44.02580000
Pb      69.18340000      12.57880000      50.31520000
Pb      69.18340000      12.57880000      56.60460000
Pb      69.18340000      12.57880000      62.89400000
Pb      69.18340000      12.57880000      69.18340000
Pb      69.18340000      18.86820000       0.00000000
Pb      69.18340000      18.86820000       6.28940000
Pb      69.18340000      18.86820000      12.57880000
Pb      69.18340000      18.86820000      18.86820000
Pb      69.18340000      18.86820000      25.15760000
Pb      69.18340000      18.86820000      31.44700000
Pb      69.18340000      18.86820000      37.73640000
Pb      69.18340000      18.86820000      44.02580000
Pb      69.18340000      18.86820000      50.31520000
Pb      69.18340000      18.86820000      56.60460000
Pb      69.18340000      18.86820000      62.89400000
Pb      69.18340000      18.86820000      69.18340000
Pb      69.18340000      25.15760000       0.00000000
Pb      69.18340000      25.15760000       6.28940000
Pb      69.18340000      25.15760000      12.57880000
Pb      69.18340000      25.15760000      18.86820000
Pb      69.18340000      25.15760000      25.15760000
Pb      69.18340000      25.15760000      31.44700000
Pb      69.18340000      25.15760000      37.73640000
Pb      69.18340000      25.15760000      44.02580000
Pb      69.18340000      25.15760000      50.31520000
Pb      69.18340000      25.15760000      56.60460000
Pb      69.18340000      25.15760000      62.89400000
Pb      69.18340000      25.15760000      69.18340000
Pb      69.18340000      31.44700000       0.00000000
Pb      69.18340000      31.44700000       6.28940000
Pb      69.18340000      31.44700000      12.57880000
Pb      69.18340000      31.44700000      18.86820000
Pb      69.18340000      31.44700000      25.15760000
Pb      69.18340000      31.44700000      31.44700000
Pb      69.18340000      31.44700000      37.73640000
Pb      69.18340000      31.44700000      44.02580000
Pb      69.18340000      31.44700000      50.31520000
Pb      69.18340000      31.44700000      56.60460000
Pb      69.18340000      31.44700000      62.89400000
Pb      69.18340000      31.44700000      69.18340000
Pb      69.18340000      37.73640000       0.00000000
Pb      69.18340000      37.73640000       6.28940000
Pb      69.18340000      37.73640000      12.57880000
Pb      69.18340000      37.73640000      18.86820000
Pb      69.18340000      37.73640000      25.15760000
Pb      69.18340000      37.73640000      31.44700000
Pb      69.18340000      37.73640000      37.73640000
Pb      69.18340000      37.73640000      44.02580000
Pb      69.18340000      37.73640000      50.31520000
Pb      69.18340000      37.73640000      56.60460000
Pb      69.18340000      37.73640000      62.89400000
Pb      69.18340000      37.73640000      69.18340000
Pb      69.18340000      44.02580000       0.00000000
Pb      69.18340000      44.02580000       6.28940000
Pb      69.18340000      44.02580000      12.57880000
Pb      69.18340000      44.02580000      18.86820000
Pb      69.18340000      44.02580000      25.15760000
Pb      69.18340000      44.02580000      31.44700000
Pb      69.18340000      44.02580000      37.73640000
Pb      69.18340000      44.02580000      44.02580000
Pb      69.18340000      44.02580000      50.31520000
Pb      69.18340000      44.02580000      56.60460000
Pb      69.18340000      44.02580000      62.89400000
Pb      69.18340000      44.02580000      69.18340000
Pb      69.18340000      50.31520000       0.00000000
Pb      69.18340000      50.31520000       6.28940000
Pb      69.18340000      50.31520000      12.57880000
Pb      69.18340000      50.31520000      18.86820000
Pb      69.18340000      50.31520000      25.15760000
Pb      69.18340000      50.31520000      31.44700000
Pb      69.18340000      50.31520000      37.73640000
Pb      69.18340000      50.31520000      44.02580000
Pb      69.18340000      50.31520000      50.31520000
Pb      69.18340000      50.31520000      56.60460000
Pb      69.18340000      50.31520000      62.89400000
Pb      69.18340000      50.31520000      69.18340000
Pb      69.18340000      56.60460000       0.00000000
Pb      69.18340000      56.60460000       6.28940000
Pb      69.18340000      56.60460000      12.57880000
Pb      69.18340000      56.60460000      18.86820000
Pb      69.18340000      56.60460000      25.15760000
Pb      69.18340000      56.60460000      31.44700000
Pb      69.18340000      56.60460000      37.73640000
Pb      69.18340000      56.60460000      44.02580000
Pb      69.18340000      56.60460000      50.31520000
Pb      69.18340000      56.60460000      56.60460000
Pb      69.18340000      56.60460000      62.89400000
Pb      69.18340000      56.60460000      69.18340000
Pb      69.18340000      62.89400000       0.00000000
Pb      69.18340000      62.89400000       6.28940000
Pb      69.18340000      62.89400000      12.57880000
Pb      69.18340000      62.89400000      18.86820000
Pb      69.18340000      62.89400000      25.15760000
Pb      69.18340000      62.89400000      31.44700000
Pb      69.18340000      62.89400000      37.73640000
Pb      69.18340000      62.89400000      44.02580000
Pb      69.18340000      62.89400000      50.31520000
Pb      69.18340000      62.89400000      56.60460000
Pb      69.18340000      62.89400000      62.89400000
Pb      69.18340000      62.89400000      69.18340000
Pb      69.18340000      69.18340000       0.00000000
Pb      69.18340000      69.18340000       6.28940000
Pb      69.18340000      69.18340000      12.57880000
Pb      69.18340000      69.18340000      18.86820000
Pb      69.18340000      69.18340000      25.15760000
Pb      69.18340000      69.18340000      31.44700000
Pb      69.18340000      69.18340000      37.73640000
Pb      69.18340000      69.18340000      44.02580000
Pb      69.18340000      69.18340000      50.31520000
Pb      69.18340000      69.18340000      56.60460000
Pb      69.18340000      69.18340000      62.89400000
Pb      69.18340000      69.18340000      69.18340000
I        0.00000000       0.00000000       3.14470000
I        0.00000000       3.14470000       0.00000000
I        3.14470000       0.00000000       0.00000000
I        0.00000000       0.00000000       9.43410000
I        0.00000000       3.14470000       6.28940000
I        3.14470000       0.00000000       6.28940000
I        0.00000000       0.00000000      15.72350000
I        0.00000000       3.14470000      12.57880000
I        3.14470000       0.00000000      12.57880000
I        0.00000000       0.00000000      22.01290000
I        0.00000000       3.14470000      18.86820000
I        3.14470000       0.00000000      18.86820000
I        0.00000000       0.00000000      28.30230000
I        0.00000000       3.14470000      25.15760000
I        3.14470000       0.00000000      25.15760000
I        0.00000000       0.00000000      34.59170000
I        0.00000000       3.14470000      31.44700000
I        3.14470000       0.00000000      31.44700000
I        0.00000000       0.00000000      40.88110000
I        0.00000000       3.14470000      37.73640000
I        3.14470000       0.00000000      37.73640000
I        0.00000000       0.00000000      47.17050000
I        0.00000000       3.14470000      44.02580000
I        3.14470000       0.00000000      44.02580000
I        0.00000000       0.00000000      53.45990000
I        0.00000000       3.14470000      50.31520000
I        3.14470000       0.00000000      50.31520000
I        0.00000000       0.00000000      59.74930000
I        0.00000000       3.14470000      56.60460000
I        3.14470000       0.00000000      56.60460000
I        0.00000000       0.00000000      66.03870000
I        0.00000000       3.14470000      62.89400000
I        3.14470000       0.00000000      62.89400000
I        0.00000000       0.00000000      72.32810000
I        0.00000000       3.14470000      69.18340000
I        3.14470000       0.00000000      69.18340000
I        0.00000000       6.28940000       3.14470000
I        0.00000000       9.43410000       0.00000000
I        3.14470000       6.28940000       0.00000000
I        0.00000000       6.28940000       9.43410000
I        0.00000000       9.43410000       6.28940000
I        3.14470000       6.28940000       6.28940000
I        0.00000000       6.28940000      15.72350000
I        0.00000000       9.43410000      12.57880000
I        3.14470000       6.28940000      12.57880000
I        0.00000000       6.28940000      22.01290000
I        0.00000000       9.43410000      18.86820000
I        3.14470000       6.28940000      18.86820000
I        0.00000000       6.28940000      28.30230000
I        0.00000000       9.43410000      25.15760000
I        3.14470000       6.28940000      25.15760000
I        0.00000000       6.28940000      34.59170000
I        0.00000000       9.43410000      31.44700000
I        3.14470000       6.28940000      31.44700000
I        0.00000000       6.28940000      40.88110000
I        0.00000000       9.43410000      37.73640000
I        3.14470000       6.28940000      37.73640000
I        0.00000000       6.28940000      47.17050000
I        0.00000000       9.43410000      44.02580000
I        3.14470000       6.28940000      44.02580000
I        0.00000000       6.28940000      53.45990000
I        0.00000000       9.43410000      50.31520000
I        3.14470000       6.28940000      50.31520000
I        0.00000000       6.28940000      59.74930000
I        0.00000000       9.43410000      56.60460000
I        3.14470000       6.28940000      56.60460000
I        0.00000000       6.28940000      66.03870000
I        0.00000000       9.43410000      62.89400000
I        3.14470000       6.28940000      62.89400000
I        0.00000000       6.28940000      72.32810000
I        0.00000000       9.43410000      69.18340000
I        3.14470000       6.28940000      69.18340000
I        0.00000000      12.57880000       3.14470000
I        0.00000000      15.72350000       0.00000000
I        3.14470000      12.57880000       0.00000000
I        0.00000000      12.57880000       9.43410000
I        0.00000000      15.72350000       6.28940000
I        3.14470000      12.57880000       6.28940000
I        0.00000000      12.57880000      15.72350000
I        0.00000000      15.72350000      12.57880000
I        3.14470000      12.57880000      12.57880000
I        0.00000000      12.57880000      22.01290000
I        0.00000000      15.72350000      18.86820000
I        3.14470000      12.57880000      18.86820000
I        0.00000000      12.57880000      28.30230000
I        0.00000000      15.72350000      25.15760000
I        3.14470000      12.57880000      25.15760000
I        0.00000000      12.57880000      34.59170000
I        0.00000000      15.72350000      31.44700000
I        3.14470000      12.57880000      31.44700000
I        0.00000000      12.57880000      40.88110000
I        0.00000000      15.72350000      37.73640000
I        3.14470000      12.57880000      37.73640000
I        0.00000000      12.57880000      47.17050000
I        0.00000000      15.72350000      44.02580000
I        3.14470000      12.57880000      44.02580000
I        0.00000000      12.57880000      53.45990000
I        0.00000000      15.72350000      50.31520000
I        3.14470000      12.57880000      50.31520000
I        0.00000000      12.57880000      59.74930000
I        0.00000000      15.72350000      56.60460000
I        3.14470000      12.57880000      56.60460000
I        0.00000000      12.57880000      66.03870000
I        0.00000000      15.72350000      62.89400000
I        3.14470000      12.57880000      62.89400000
I        0.00000000      12.57880000      72.32810000
I        0.00000000      15.72350000      69.18340000
I        3.14470000      12.57880000      69.18340000
I        0.00000000      18.86820000       3.14470000
I        0.00000000      22.01290000       0.00000000
I        3.14470000      18.86820000       0.00000000
I        0.00000000      18.86820000       9.43410000
I        0.00000000      22.01290000       6.28940000
I        3.14470000      18.86820000       6.28940000
I        0.00000000      18.86820000      15.72350000
I        0.00000000      22.01290000      12.57880000
I        3.14470000      18.86820000      12.57880000
I        0.00000000      18.86820000      22.01290000
I        0.00000000      22.01290000      18.86820000
I        3.14470000      18.86820000      18.86820000
I        0.00000000      18.86820000      28.30230000
I        0.00000000      22.01290000      25.15760000
I        3.14470000      18.86820000      25.15760000
I        0.00000000      18.86820000      34.59170000
I        0.00000000      22.01290000      31.44700000
I        3.14470000      18.86820000      31.44700000
I        0.00000000      18.86820000      40.88110000
I        0.00000000      22.01290000      37.73640000
I        3.14470000      18.86820000      37.73640000
I        0.00000000      18.86820000      47.17050000
I        0.00000000      22.01290000      44.02580000
I        3.14470000      18.86820000      44.02580000
I        0.00000000      18.86820000      53.45990000
I        0.00000000      22.01290000      50.31520000
I        3.14470000      18.86820000      50.31520000
I        0.00000000      18.86820000      59.74930000
I        0.00000000      22.01290000      56.60460000
I        3.14470000      18.86820000      56.60460000
I        0.00000000      18.86820000      66.03870000
I        0.00000000      22.01290000      62.89400000
I        3.14470000      18.86820000      62.89400000
I        0.00000000      18.86820000      72.32810000
I        0.00000000      22.01290000      69.18340000
I        3.14470000      18.86820000      69.18340000
I        0.00000000      25.15760000       3.14470000
I        0.00000000      28.30230000       0.00000000
I        3.14470000      25.15760000       0.00000000
I        0.00000000      25.15760000       9.43410000
I        0.00000000      28.30230000       6.28940000
I        3.14470000      25.15760000       6.28940000
I        0.00000000      25.15760000      15.72350000
I        0.00000000      28.30230000      12.57880000
I        3.14470000      25.15760000      12.57880000
I        0.00000000      25.15760000      22.01290000
I        0.00000000      28.30230000      18.86820000
I        3.14470000      25.15760000      18.86820000
I        0.00000000      25.15760000      28.30230000
I        0.00000000      28.30230000      25.15760000
I        3.14470000      25.15760000      25.15760000
I        0.00000000      25.15760000      34.59170000
I        0.00000000      28.30230000      31.44700000
I        3.14470000      25.15760000      31.44700000
I        0.00000000      25.15760000      40.88110000
I        0.00000000      28.30230000      37.73640000
I        3.14470000      25.15760000      37.73640000
I        0.00000000      25.15760000      47.17050000
I        0.00000000      28.30230000      44.02580000
I        3.14470000      25.15760000      44.02580000
I        0.00000000      25.15760000      53.45990000
I        0.00000000      28.30230000      50.31520000
I        3.14470000      25.15760000      50.31520000
I        0.00000000      25.15760000      59.74930000
I        0.00000000      28.30230000      56.60460000
I        3.14470000      25.15760000      56.60460000
I        0.00000000      25.15760000      66.03870000
I        0.00000000      28.30230000      62.89400000
I        3.14470000      25.15760000      62.89400000
I        0.00000000      25.15760000      72.32810000
I        0.00000000      28.30230000      69.18340000
I        3.14470000      25.15760000      69.18340000
I        0.00000000      31.44700000       3.14470000
I        0.00000000      34.59170000       0.00000000
I        3.14470000      31.44700000       0.00000000
I        0.00000000      31.44700000       9.43410000
I        0.00000000      34.59170000       6.28940000
I        3.14470000      31.44700000       6.28940000
I        0.00000000      31.44700000      15.72350000
I        0.00000000      34.59170000      12.57880000
I        3.14470000      31.44700000      12.57880000
I        0.00000000      31.44700000      22.01290000
I        0.00000000      34.59170000      18.86820000
I        3.14470000      31.44700000      18.86820000
I        0.00000000      31.44700000      28.30230000
I        0.00000000      34.59170000      25.15760000
I        3.14470000      31.44700000      25.15760000
I        0.00000000      31.44700000      34.59170000
I        0.00000000      34.59170000      31.44700000
I        3.14470000      31.44700000      31.44700000
I        0.00000000      31.44700000      40.88110000
I        0.00000000      34.59170000      37.73640000
I        3.14470000      31.44700000      37.73640000
I        0.00000000      31.44700000      47.17050000
I        0.00000000      34.59170000      44.02580000
I        3.14470000      31.44700000      44.02580000
I        0.00000000      31.44700000      53.45990000
I        0.00000000      34.59170000      50.31520000
I        3.14470000      31.44700000      50.31520000
I        0.00000000      31.44700000      59.74930000
I        0.00000000      34.59170000      56.60460000
I        3.14470000      31.44700000      56.60460000
I        0.00000000      31.44700000      66.03870000
I        0.00000000      34.59170000      62.89400000
I        3.14470000      31.44700000      62.89400000
I        0.00000000      31.44700000      72.32810000
I        0.00000000      34.59170000      69.18340000
I        3.14470000      31.44700000      69.18340000
I        0.00000000      37.73640000       3.14470000
I        0.00000000      40.88110000       0.00000000
I        3.14470000      37.73640000       0.00000000
I        0.00000000      37.73640000       9.43410000
I        0.00000000      40.88110000       6.28940000
I        3.14470000      37.73640000       6.28940000
I        0.00000000      37.73640000      15.72350000
I        0.00000000      40.88110000      12.57880000
I        3.14470000      37.73640000      12.57880000
I        0.00000000      37.73640000      22.01290000
I        0.00000000      40.88110000      18.86820000
I        3.14470000      37.73640000      18.86820000
I        0.00000000      37.73640000      28.30230000
I        0.00000000      40.88110000      25.15760000
I        3.14470000      37.73640000      25.15760000
I        0.00000000      37.73640000      34.59170000
I        0.00000000      40.88110000      31.44700000
I        3.14470000      37.73640000      31.44700000
I        0.00000000      37.73640000      40.88110000
I        0.00000000      40.88110000      37.73640000
I        3.14470000      37.73640000      37.73640000
I        0.00000000      37.73640000      47.17050000
I        0.00000000      40.88110000      44.02580000
I        3.14470000      37.73640000      44.02580000
I        0.00000000      37.73640000      53.45990000
I        0.00000000      40.88110000      50.31520000
I        3.14470000      37.73640000      50.31520000
I        0.00000000      37.73640000      59.74930000
I        0.00000000      40.88110000      56.60460000
I        3.14470000      37.73640000      56.60460000
I        0.00000000      37.73640000      66.03870000
I        0.00000000      40.88110000      62.89400000
I        3.14470000      37.73640000      62.89400000
I        0.00000000      37.73640000      72.32810000
I        0.00000000      40.88110000      69.18340000
I        3.14470000      37.73640000      69.18340000
I        0.00000000      44.02580000       3.14470000
I        0.00000000      47.17050000       0.00000000
I        3.14470000      44.02580000       0.00000000
I        0.00000000      44.02580000       9.43410000
I        0.00000000      47.17050000       6.28940000
I        3.14470000      44.02580000       6.28940000
I        0.00000000      44.02580000      15.72350000
I        0.00000000      47.17050000      12.57880000
I        3.14470000      44.02580000      12.57880000
I        0.00000000      44.02580000      22.01290000
I        0.00000000      47.17050000      18.86820000
I        3.14470000      44.02580000      18.86820000
I        0.00000000      44.02580000      28.30230000
I        0.00000000      47.17050000      25.15760000
I        3.14470000      44.02580000      25.15760000
I        0.00000000      44.02580000      34.59170000
I        0.00000000      47.17050000      31.44700000
I        3.14470000      44.02580000      31.44700000
I        0.00000000      44.02580000      40.88110000
I        0.00000000      47.17050000      37.73640000
I        3.14470000      44.02580000      37.73640000
I        0.00000000      44.02580000      47.17050000
I        0.00000000      47.17050000      44.02580000
I        3.14470000      44.02580000      44.02580000
I        0.00000000      44.02580000      53.45990000
I        0.00000000      47.17050000      50.31520000
I        3.14470000      44.02580000      50.31520000
I        0.00000000      44.02580000      59.74930000
I        0.00000000      47.17050000      56.60460000
I        3.14470000      44.02580000      56.60460000
I        0.00000000      44.02580000      66.03870000
I        0.00000000      47.17050000      62.89400000
I        3.14470000      44.02580000      62.89400000
I        0.00000000      44.02580000      72.32810000
I        0.00000000      47.17050000      69.18340000
I        3.14470000      44.02580000      69.18340000
I        0.00000000      50.31520000       3.14470000
I        0.00000000      53.45990000       0.00000000
I        3.14470000      50.31520000       0.00000000
I        0.00000000      50.31520000       9.43410000
I        0.00000000      53.45990000       6.28940000
I        3.14470000      50.31520000       6.28940000
I        0.00000000      50.31520000      15.72350000
I        0.00000000      53.45990000      12.57880000
I        3.14470000      50.31520000      12.57880000
I        0.00000000      50.31520000      22.01290000
I        0.00000000      53.45990000      18.86820000
I        3.14470000      50.31520000      18.86820000
I        0.00000000      50.31520000      28.30230000
I        0.00000000      53.45990000      25.15760000
I        3.14470000      50.31520000      25.15760000
I        0.00000000      50.31520000      34.59170000
I        0.00000000      53.45990000      31.44700000
I        3.14470000      50.31520000      31.44700000
I        0.00000000      50.31520000      40.88110000
I        0.00000000      53.45990000      37.73640000
I        3.14470000      50.31520000      37.73640000
I        0.00000000      50.31520000      47.17050000
I        0.00000000      53.45990000      44.02580000
I        3.14470000      50.31520000      44.02580000
I        0.00000000      50.31520000      53.45990000
I        0.00000000      53.45990000      50.31520000
I        3.14470000      50.31520000      50.31520000
I        0.00000000      50.31520000      59.74930000
I        0.00000000      53.45990000      56.60460000
I        3.14470000      50.31520000      56.60460000
I        0.00000000      50.31520000      66.03870000
I        0.00000000      53.45990000      62.89400000
I        3.14470000      50.31520000      62.89400000
I        0.00000000      50.31520000      72.32810000
I        0.00000000      53.45990000      69.18340000
I        3.14470000      50.31520000      69.18340000
I        0.00000000      56.60460000       3.14470000
I        0.00000000      59.74930000       0.00000000
I        3.14470000      56.60460000       0.00000000
I        0.00000000      56.60460000       9.43410000
I        0.00000000      59.74930000       6.28940000
I        3.14470000      56.60460000       6.28940000
I        0.00000000      56.60460000      15.72350000
I        0.00000000      59.74930000      12.57880000
I        3.14470000      56.60460000      12.57880000
I        0.00000000      56.60460000      22.01290000
I        0.00000000      59.74930000      18.86820000
I        3.14470000      56.60460000      18.86820000
I        0.00000000      56.60460000      28.30230000
I        0.00000000      59.74930000      25.15760000
I        3.14470000      56.60460000      25.15760000
I        0.00000000      56.60460000      34.59170000
I        0.00000000      59.74930000      31.44700000
I        3.14470000      56.60460000      31.44700000
I        0.00000000      56.60460000      40.88110000
I        0.00000000      59.74930000      37.73640000
I        3.14470000      56.60460000      37.73640000
I        0.00000000      56.60460000      47.17050000
I        0.00000000      59.74930000      44.02580000
I        3.14470000      56.60460000      44.02580000
I        0.00000000      56.60460000      53.45990000
I        0.00000000      59.74930000      50.31520000
I        3.14470000      56.60460000      50.31520000
I        0.00000000      56.60460000      59.74930000
I        0.00000000      59.74930000      56.60460000
I        3.14470000      56.60460000      56.60460000
I        0.00000000      56.60460000      66.03870000
I        0.00000000      59.74930000      62.89400000
I        3.14470000      56.60460000      62.89400000
I        0.00000000      56.60460000      72.32810000
I        0.00000000      59.74930000      69.18340000
I        3.14470000      56.60460000      69.18340000
I        0.00000000      62.89400000       3.14470000
I        0.00000000      66.03870000       0.00000000
I        3.14470000      62.89400000       0.00000000
I        0.00000000      62.89400000       9.43410000
I        0.00000000      66.03870000       6.28940000
I        3.14470000      62.89400000       6.28940000
I        0.00000000      62.89400000      15.72350000
I        0.00000000      66.03870000      12.57880000
I        3.14470000      62.89400000      12.57880000
I        0.00000000      62.89400000      22.01290000
I        0.00000000      66.03870000      18.86820000
I        3.14470000      62.89400000      18.86820000
I        0.00000000      62.89400000      28.30230000
I        0.00000000      66.03870000      25.15760000
I        3.14470000      62.89400000      25.15760000
I        0.00000000      62.89400000      34.59170000
I        0.00000000      66.03870000      31.44700000
I        3.14470000      62.89400000      31.44700000
I        0.00000000      62.89400000      40.88110000
I        0.00000000      66.03870000      37.73640000
I        3.14470000      62.89400000      37.73640000
I        0.00000000      62.89400000      47.17050000
I        0.00000000      66.03870000      44.02580000
I        3.14470000      62.89400000      44.02580000
I        0.00000000      62.89400000      53.45990000
I        0.00000000      66.03870000      50.31520000
I        3.14470000      62.89400000      50.31520000
I        0.00000000      62.89400000      59.74930000
I        0.00000000      66.03870000      56.60460000
I        3.14470000      62.89400000      56.60460000
I        0.00000000      62.89400000      66.03870000
I        0.00000000      66.03870000      62.89400000
I        3.14470000      62.89400000      62.89400000
I        0.00000000      62.89400000      72.32810000
I        0.00000000      66.03870000      69.18340000
I        3.14470000      62.89400000      69.18340000
I        0.00000000      69.18340000       3.14470000
I        0.00000000      72.32810000       0.00000000
I        3.14470000      69.18340000       0.00000000
I        0.00000000      69.18340000       9.43410000
I        0.00000000      72.32810000       6.28940000
I        3.14470000      69.18340000       6.28940000
I        0.00000000      69.18340000      15.72350000
I        0.00000000      72.32810000      12.57880000
I        3.14470000      69.18340000      12.57880000
I        0.00000000      69.18340000      22.01290000
I        0.00000000      72.32810000      18.86820000
I        3.14470000      69.18340000      18.86820000
I        0.00000000      69.18340000      28.30230000
I        0.00000000      72.32810000      25.15760000
I        3.14470000      69.18340000      25.15760000
I        0.00000000      69.18340000      34.59170000
I        0.00000000      72.32810000      31.44700000
I        3.14470000      69.18340000      31.44700000
I        0.00000000      69.18340000      40.88110000
I        0.00000000      72.32810000      37.73640000
I        3.14470000      69.18340000      37.73640000
I        0.00000000      69.18340000      47.17050000
I        0.00000000      72.32810000      44.02580000
I        3.14470000      69.18340000      44.02580000
I        0.00000000      69.18340000      53.45990000
I        0.00000000      72.32810000      50.31520000
I        3.14470000      69.18340000      50.31520000
I        0.00000000      69.18340000      59.74930000
I        0.00000000      72.32810000      56.60460000
I        3.14470000      69.18340000      56.60460000
I        0.00000000      69.18340000      66.03870000
I        0.00000000      72.32810000      62.89400000
I        3.14470000      69.18340000      62.89400000
I        0.00000000      69.18340000      72.32810000
I        0.00000000      72.32810000      69.18340000
I        3.14470000      69.18340000      69.18340000
I        6.28940000       0.00000000       3.14470000
I        6.28940000       3.14470000       0.00000000
I        9.43410000       0.00000000       0.00000000
I        6.28940000       0.00000000       9.43410000
I        6.28940000       3.14470000       6.28940000
I        9.43410000       0.00000000       6.28940000
I        6.28940000       0.00000000      15.72350000
I        6.28940000       3.14470000      12.57880000
I        9.43410000       0.00000000      12.57880000
I        6.28940000       0.00000000      22.01290000
I        6.28940000       3.14470000      18.86820000
I        9.43410000       0.00000000      18.86820000
I        6.28940000       0.00000000      28.30230000
I        6.28940000       3.14470000      25.15760000
I        9.43410000       0.00000000      25.15760000
I        6.28940000       0.00000000      34.59170000
I        6.28940000       3.14470000      31.44700000
I        9.43410000       0.00000000      31.44700000
I        6.28940000       0.00000000      40.88110000
I        6.28940000       3.14470000      37.73640000
I        9.43410000       0.00000000      37.73640000
I        6.28940000       0.00000000      47.17050000
I        6.28940000       3.14470000      44.02580000
I        9.43410000       0.00000000      44.02580000
I        6.28940000       0.00000000      53.45990000
I        6.28940000       3.14470000      50.31520000
I        9.43410000       0.00000000      50.31520000
I        6.28940000       0.00000000      59.74930000
I        6.28940000       3.14470000      56.60460000
I        9.43410000       0.00000000      56.60460000
I        6.28940000       0.00000000      66.03870000
I        6.28940000       3.14470000      62.89400000
I        9.43410000       0.00000000      62.89400000
I        6.28940000       0.00000000      72.32810000
I        6.28940000       3.14470000      69.18340000
I        9.43410000       0.00000000      69.18340000
I        6.28940000       6.28940000       3.14470000
I        6.28940000       9.43410000       0.00000000
I        9.43410000       6.28940000       0.00000000
I        6.28940000       6.28940000       9.43410000
I        6.28940000       9.43410000       6.28940000
I        9.43410000       6.28940000       6.28940000
I        6.28940000       6.28940000      15.72350000
I        6.28940000       9.43410000      12.57880000
I        9.43410000       6.28940000      12.57880000
I        6.28940000       6.28940000      22.01290000
I        6.28940000       9.43410000      18.86820000
I        9.43410000       6.28940000      18.86820000
I        6.28940000       6.28940000      28.30230000
I        6.28940000       9.43410000      25.15760000
I        9.43410000       6.28940000      25.15760000
I        6.28940000       6.28940000      34.59170000
I        6.28940000       9.43410000      31.44700000
I        9.43410000       6.28940000      31.44700000
I        6.28940000       6.28940000      40.88110000
I        6.28940000       9.43410000      37.73640000
I        9.43410000       6.28940000      37.73640000
I        6.28940000       6.28940000      47.17050000
I        6.28940000       9.43410000      44.02580000
I        9.43410000       6.28940000      44.02580000
I        6.28940000       6.28940000      53.45990000
I        6.28940000       9.43410000      50.31520000
I        9.43410000       6.28940000      50.31520000
I        6.28940000       6.28940000      59.74930000
I        6.28940000       9.43410000      56.60460000
I        9.43410000       6.28940000      56.60460000
I        6.28940000       6.28940000      66.03870000
I        6.28940000       9.43410000      62.89400000
I        9.43410000       6.28940000      62.89400000
I        6.28940000       6.28940000      72.32810000
I        6.28940000       9.43410000      69.18340000
I        9.43410000       6.28940000      69.18340000
I        6.28940000      12.57880000       3.14470000
I        6.28940000      15.72350000       0.00000000
I        9.43410000      12.57880000       0.00000000
I        6.28940000      12.57880000       9.43410000
I        6.28940000      15.72350000       6.28940000
I        9.43410000      12.57880000       6.28940000
I        6.28940000      12.57880000      15.72350000
I        6.28940000      15.72350000      12.57880000
I        9.43410000      12.57880000      12.57880000
I        6.28940000      12.57880000      22.01290000
I        6.28940000      15.72350000      18.86820000
I        9.43410000      12.57880000      18.86820000
I        6.28940000      12.57880000      28.30230000
I        6.28940000      15.72350000      25.15760000
I        9.43410000      12.57880000      25.15760000
I        6.28940000      12.57880000      34.59170000
I        6.28940000      15.72350000      31.44700000
I        9.43410000      12.57880000      31.44700000
I        6.28940000      12.57880000      40.88110000
I        6.28940000      15.72350000      37.73640000
I        9.43410000      12.57880000      37.73640000
I        6.28940000      12.57880000      47.17050000
I        6.28940000      15.72350000      44.02580000
I        9.43410000      12.57880000      44.02580000
I        6.28940000      12.57880000      53.45990000
I        6.28940000      15.72350000      50.31520000
I        9.43410000      12.57880000      50.31520000
I        6.28940000      12.57880000      59.74930000
I        6.28940000      15.72350000      56.60460000
I        9.43410000      12.57880000      56.60460000
I        6.28940000      12.57880000      66.03870000
I        6.28940000      15.72350000      62.89400000
I        9.43410000      12.57880000      62.89400000
I        6.28940000      12.57880000      72.32810000
I        6.28940000      15.72350000      69.18340000
I        9.43410000      12.57880000      69.18340000
I        6.28940000      18.86820000       3.14470000
I        6.28940000      22.01290000       0.00000000
I        9.43410000      18.86820000       0.00000000
I        6.28940000      18.86820000       9.43410000
I        6.28940000      22.01290000       6.28940000
I        9.43410000      18.86820000       6.28940000
I        6.28940000      18.86820000      15.72350000
I        6.28940000      22.01290000      12.57880000
I        9.43410000      18.86820000      12.57880000
I        6.28940000      18.86820000      22.01290000
I        6.28940000      22.01290000      18.86820000
I        9.43410000      18.86820000      18.86820000
I        6.28940000      18.86820000      28.30230000
I        6.28940000      22.01290000      25.15760000
I        9.43410000      18.86820000      25.15760000
I        6.28940000      18.86820000      34.59170000
I        6.28940000      22.01290000      31.44700000
I        9.43410000      18.86820000      31.44700000
I        6.28940000      18.86820000      40.88110000
I        6.28940000      22.01290000      37.73640000
I        9.43410000      18.86820000      37.73640000
I        6.28940000      18.86820000      47.17050000
I        6.28940000      22.01290000      44.02580000
I        9.43410000      18.86820000      44.02580000
I        6.28940000      18.86820000      53.45990000
I        6.28940000      22.01290000      50.31520000
I        9.43410000      18.86820000      50.31520000
I        6.28940000      18.86820000      59.74930000
I        6.28940000      22.01290000      56.60460000
I        9.43410000      18.86820000      56.60460000
I        6.28940000      18.86820000      66.03870000
I        6.28940000      22.01290000      62.89400000
I        9.43410000      18.86820000      62.89400000
I        6.28940000      18.86820000      72.32810000
I        6.28940000      22.01290000      69.18340000
I        9.43410000      18.86820000      69.18340000
I        6.28940000      25.15760000       3.14470000
I        6.28940000      28.30230000       0.00000000
I        9.43410000      25.15760000       0.00000000
I        6.28940000      25.15760000       9.43410000
I        6.28940000      28.30230000       6.28940000
I        9.43410000      25.15760000       6.28940000
I        6.28940000      25.15760000      15.72350000
I        6.28940000      28.30230000      12.57880000
I        9.43410000      25.15760000      12.57880000
I        6.28940000      25.15760000      22.01290000
I        6.28940000      28.30230000      18.86820000
I        9.43410000      25.15760000      18.86820000
I        6.28940000      25.15760000      28.30230000
I        6.28940000      28.30230000      25.15760000
I        9.43410000      25.15760000      25.15760000
I        6.28940000      25.15760000      34.59170000
I        6.28940000      28.30230000      31.44700000
I        9.43410000      25.15760000      31.44700000
I        6.28940000      25.15760000      40.88110000
I        6.28940000      28.30230000      37.73640000
I        9.43410000      25.15760000      37.73640000
I        6.28940000      25.15760000      47.17050000
I        6.28940000      28.30230000      44.02580000
I        9.43410000      25.15760000      44.02580000
I        6.28940000      25.15760000      53.45990000
I        6.28940000      28.30230000      50.31520000
I        9.43410000      25.15760000      50.31520000
I        6.28940000      25.15760000      59.74930000
I        6.28940000      28.30230000      56.60460000
I        9.43410000      25.15760000      56.60460000
I        6.28940000      25.15760000      66.03870000
I        6.28940000      28.30230000      62.89400000
I        9.43410000      25.15760000      62.89400000
I        6.28940000      25.15760000      72.32810000
I        6.28940000      28.30230000      69.18340000
I        9.43410000      25.15760000      69.18340000
I        6.28940000      31.44700000       3.14470000
I        6.28940000      34.59170000       0.00000000
I        9.43410000      31.44700000       0.00000000
I        6.28940000      31.44700000       9.43410000
I        6.28940000      34.59170000       6.28940000
I        9.43410000      31.44700000       6.28940000
I        6.28940000      31.44700000      15.72350000
I        6.28940000      34.59170000      12.57880000
I        9.43410000      31.44700000      12.57880000
I        6.28940000      31.44700000      22.01290000
I        6.28940000      34.59170000      18.86820000
I        9.43410000      31.44700000      18.86820000
I        6.28940000      31.44700000      28.30230000
I        6.28940000      34.59170000      25.15760000
I        9.43410000      31.44700000      25.15760000
I        6.28940000      31.44700000      34.59170000
I        6.28940000      34.59170000      31.44700000
I        9.43410000      31.44700000      31.44700000
I        6.28940000      31.44700000      40.88110000
I        6.28940000      34.59170000      37.73640000
I        9.43410000      31.44700000      37.73640000
I        6.28940000      31.44700000      47.17050000
I        6.28940000      34.59170000      44.02580000
I        9.43410000      31.44700000      44.02580000
I        6.28940000      31.44700000      53.45990000
I        6.28940000      34.59170000      50.31520000
I        9.43410000      31.44700000      50.31520000
I        6.28940000      31.44700000      59.74930000
I        6.28940000      34.59170000      56.60460000
I        9.43410000      31.44700000      56.60460000
I        6.28940000      31.44700000      66.03870000
I        6.28940000      34.59170000      62.89400000
I        9.43410000      31.44700000      62.89400000
I        6.28940000      31.44700000      72.32810000
I        6.28940000      34.59170000      69.18340000
I        9.43410000      31.44700000      69.18340000
I        6.28940000      37.73640000       3.14470000
I        6.28940000      40.88110000       0.00000000
I        9.43410000      37.73640000       0.00000000
I        6.28940000      37.73640000       9.43410000
I        6.28940000      40.88110000       6.28940000
I        9.43410000      37.73640000       6.28940000
I        6.28940000      37.73640000      15.72350000
I        6.28940000      40.88110000      12.57880000
I        9.43410000      37.73640000      12.57880000
I        6.28940000      37.73640000      22.01290000
I        6.28940000      40.88110000      18.86820000
I        9.43410000      37.73640000      18.86820000
I        6.28940000      37.73640000      28.30230000
I        6.28940000      40.88110000      25.15760000
I        9.43410000      37.73640000      25.15760000
I        6.28940000      37.73640000      34.59170000
I        6.28940000      40.88110000      31.44700000
I        9.43410000      37.73640000      31.44700000
I        6.28940000      37.73640000      40.88110000
I        6.28940000      40.88110000      37.73640000
I        9.43410000      37.73640000      37.73640000
I        6.28940000      37.73640000      47.17050000
I        6.28940000      40.88110000      44.02580000
I        9.43410000      37.73640000      44.02580000
I        6.28940000      37.73640000      53.45990000
I        6.28940000      40.88110000      50.31520000
I        9.43410000      37.73640000      50.31520000
I        6.28940000      37.73640000      59.74930000
I        6.28940000      40.88110000      56.60460000
I        9.43410000      37.73640000      56.60460000
I        6.28940000      37.73640000      66.03870000
I        6.28940000      40.88110000      62.89400000
I        9.43410000      37.73640000      62.89400000
I        6.28940000      37.73640000      72.32810000
I        6.28940000      40.88110000      69.18340000
I        9.43410000      37.73640000      69.18340000
I        6.28940000      44.02580000       3.14470000
I        6.28940000      47.17050000       0.00000000
I        9.43410000      44.02580000       0.00000000
I        6.28940000      44.02580000       9.43410000
I        6.28940000      47.17050000       6.28940000
I        9.43410000      44.02580000       6.28940000
I        6.28940000      44.02580000      15.72350000
I        6.28940000      47.17050000      12.57880000
I        9.43410000      44.02580000      12.57880000
I        6.28940000      44.02580000      22.01290000
I        6.28940000      47.17050000      18.86820000
I        9.43410000      44.02580000      18.86820000
I        6.28940000      44.02580000      28.30230000
I        6.28940000      47.17050000      25.15760000
I        9.43410000      44.02580000      25.15760000
I        6.28940000      44.02580000      34.59170000
I        6.28940000      47.17050000      31.44700000
I        9.43410000      44.02580000      31.44700000
I        6.28940000      44.02580000      40.88110000
I        6.28940000      47.17050000      37.73640000
I        9.43410000      44.02580000      37.73640000
I        6.28940000      44.02580000      47.17050000
I        6.28940000      47.17050000      44.02580000
I        9.43410000      44.02580000      44.02580000
I        6.28940000      44.02580000      53.45990000
I        6.28940000      47.17050000      50.31520000
I        9.43410000      44.02580000      50.31520000
I        6.28940000      44.02580000      59.74930000
I        6.28940000      47.17050000      56.60460000
I        9.43410000      44.02580000      56.60460000
I        6.28940000      44.02580000      66.03870000
I        6.28940000      47.17050000      62.89400000
I        9.43410000      44.02580000      62.89400000
I        6.28940000      44.02580000      72.32810000
I        6.28940000      47.17050000      69.18340000
I        9.43410000      44.02580000      69.18340000
I        6.28940000      50.31520000       3.14470000
I        6.28940000      53.45990000       0.00000000
I        9.43410000      50.31520000       0.00000000
I        6.28940000      50.31520000       9.43410000
I        6.28940000      53.45990000       6.28940000
I        9.43410000      50.31520000       6.28940000
I        6.28940000      50.31520000      15.72350000
I        6.28940000      53.45990000      12.57880000
I        9.43410000      50.31520000      12.57880000
I        6.28940000      50.31520000      22.01290000
I        6.28940000      53.45990000      18.86820000
I        9.43410000      50.31520000      18.86820000
I        6.28940000      50.31520000      28.30230000
I        6.28940000      53.45990000      25.15760000
I        9.43410000      50.31520000      25.15760000
I        6.28940000      50.31520000      34.59170000
I        6.28940000      53.45990000      31.44700000
I        9.43410000      50.31520000      31.44700000
I        6.28940000      50.31520000      40.88110000
I        6.28940000      53.45990000      37.73640000
I        9.43410000      50.31520000      37.73640000
I        6.28940000      50.31520000      47.17050000
I        6.28940000      53.45990000      44.02580000
I        9.43410000      50.31520000      44.02580000
I        6.28940000      50.31520000      53.45990000
I        6.28940000      53.45990000      50.31520000
I        9.43410000      50.31520000      50.31520000
I        6.28940000      50.31520000      59.74930000
I        6.28940000      53.45990000      56.60460000
I        9.43410000      50.31520000      56.60460000
I        6.28940000      50.31520000      66.03870000
I        6.28940000      53.45990000      62.89400000
I        9.43410000      50.31520000      62.89400000
I        6.28940000      50.31520000      72.32810000
I        6.28940000      53.45990000      69.18340000
I        9.43410000      50.31520000      69.18340000
I        6.28940000      56.60460000       3.14470000
I        6.28940000      59.74930000       0.00000000
I        9.43410000      56.60460000       0.00000000
I        6.28940000      56.60460000       9.43410000
I        6.28940000      59.74930000       6.28940000
I        9.43410000      56.60460000       6.28940000
I        6.28940000      56.60460000      15.72350000
I        6.28940000      59.74930000      12.57880000
I        9.43410000      56.60460000      12.57880000
I        6.28940000      56.60460000      22.01290000
I        6.28940000      59.74930000      18.86820000
I        9.43410000      56.60460000      18.86820000
I        6.28940000      56.60460000      28.30230000
I        6.28940000      59.74930000      25.15760000
I        9.43410000      56.60460000      25.15760000
I        6.28940000      56.60460000      34.59170000
I        6.28940000      59.74930000      31.44700000
I        9.43410000      56.60460000      31.44700000
I        6.28940000      56.60460000      40.88110000
I        6.28940000      59.74930000      37.73640000
I        9.43410000      56.60460000      37.73640000
I        6.28940000      56.60460000      47.17050000
I        6.28940000      59.74930000      44.02580000
I        9.43410000      56.60460000      44.02580000
I        6.28940000      56.60460000      53.45990000
I        6.28940000      59.74930000      50.31520000
I        9.43410000      56.60460000      50.31520000
I        6.28940000      56.60460000      59.74930000
I        6.28940000      59.74930000      56.60460000
I        9.43410000      56.60460000      56.60460000
I        6.28940000      56.60460000      66.03870000
I        6.28940000      59.74930000      62.89400000
I        9.43410000      56.60460000      62.89400000
I        6.28940000      56.60460000      72.32810000
I        6.28940000      59.74930000      69.18340000
I        9.43410000      56.60460000      69.18340000
I        6.28940000      62.89400000       3.14470000
I        6.28940000      66.03870000       0.00000000
I        9.43410000      62.89400000       0.00000000
I        6.28940000      62.89400000       9.43410000
I        6.28940000      66.03870000       6.28940000
I        9.43410000      62.89400000       6.28940000
I        6.28940000      62.89400000      15.72350000
I        6.28940000      66.03870000      12.57880000
I        9.43410000      62.89400000      12.57880000
I        6.28940000      62.89400000      22.01290000
I        6.28940000      66.03870000      18.86820000
I        9.43410000      62.89400000      18.86820000
I        6.28940000      62.89400000      28.30230000
I        6.28940000      66.03870000      25.15760000
I        9.43410000      62.89400000      25.15760000
I        6.28940000      62.89400000      34.59170000
I        6.28940000      66.03870000      31.44700000
I        9.43410000      62.89400000      31.44700000
I        6.28940000      62.89400000      40.88110000
I        6.28940000      66.03870000      37.73640000
I        9.43410000      62.89400000      37.73640000
I        6.28940000      62.89400000      47.17050000
I        6.28940000      66.03870000      44.02580000
I        9.43410000      62.89400000      44.02580000
I        6.28940000      62.89400000      53.45990000
I        6.28940000      66.03870000      50.31520000
I        9.43410000      62.89400000      50.31520000
I        6.28940000      62.89400000      59.74930000
I        6.28940000      66.03870000      56.60460000
I        9.43410000      62.89400000      56.60460000
I        6.28940000      62.89400000      66.03870000
I        6.28940000      66.03870000      62.89400000
I        9.43410000      62.89400000      62.89400000
I        6.28940000      62.89400000      72.32810000
I        6.28940000      66.03870000      69.18340000
I        9.43410000      62.89400000      69.18340000
I        6.28940000      69.18340000       3.14470000
I        6.28940000      72.32810000       0.00000000
I        9.43410000      69.18340000       0.00000000
I        6.28940000      69.18340000       9.43410000
I        6.28940000      72.32810000       6.28940000
I        9.43410000      69.18340000       6.28940000
I        6.28940000      69.18340000      15.72350000
I        6.28940000      72.32810000      12.57880000
I        9.43410000      69.18340000      12.57880000
I        6.28940000      69.18340000      22.01290000
I        6.28940000      72.32810000      18.86820000
I        9.43410000      69.18340000      18.86820000
I        6.28940000      69.18340000      28.30230000
I        6.28940000      72.32810000      25.15760000
I        9.43410000      69.18340000      25.15760000
I        6.28940000      69.18340000      34.59170000
I        6.28940000      72.32810000      31.44700000
I        9.43410000      69.18340000      31.44700000
I        6.28940000      69.18340000      40.88110000
I        6.28940000      72.32810000      37.73640000
I        9.43410000      69.18340000      37.73640000
I        6.28940000      69.18340000      47.17050000
I        6.28940000      72.32810000      44.02580000
I        9.43410000      69.18340000      44.02580000
I        6.28940000      69.18340000      53.45990000
I        6.28940000      72.32810000      50.31520000
I        9.43410000      69.18340000      50.31520000
I        6.28940000      69.18340000      59.74930000
I        6.28940000      72.32810000      56.60460000
I        9.43410000      69.18340000      56.60460000
I        6.28940000      69.18340000      66.03870000
I        6.28940000      72.32810000      62.89400000
I        9.43410000      69.18340000      62.89400000
I        6.28940000      69.18340000      72.32810000
I        6.28940000      72.32810000      69.18340000
I        9.43410000      69.18340000      69.18340000
I       12.57880000       0.00000000       3.14470000
I       12.57880000       3.14470000       0.00000000
I       15.72350000       0.00000000       0.00000000
I       12.57880000       0.00000000       9.43410000
I       12.57880000       3.14470000       6.28940000
I       15.72350000       0.00000000       6.28940000
I       12.57880000       0.00000000      15.72350000
I       12.57880000       3.14470000      12.57880000
I       15.72350000       0.00000000      12.57880000
I       12.57880000       0.00000000      22.01290000
I       12.57880000       3.14470000      18.86820000
I       15.72350000       0.00000000      18.86820000
I       12.57880000       0.00000000      28.30230000
I       12.57880000       3.14470000      25.15760000
I       15.72350000       0.00000000      25.15760000
I       12.57880000       0.00000000      34.59170000
I       12.57880000       3.14470000      31.44700000
I       15.72350000       0.00000000      31.44700000
I       12.57880000       0.00000000      40.88110000
I       12.57880000       3.14470000      37.73640000
I       15.72350000       0.00000000      37.73640000
I       12.57880000       0.00000000      47.17050000
I       12.57880000       3.14470000      44.02580000
I       15.72350000       0.00000000      44.02580000
I       12.57880000       0.00000000      53.45990000
I       12.57880000       3.14470000      50.31520000
I       15.72350000       0.00000000      50.31520000
I       12.57880000       0.00000000      59.74930000
I       12.57880000       3.14470000      56.60460000
I       15.72350000       0.00000000      56.60460000
I       12.57880000       0.00000000      66.03870000
I       12.57880000       3.14470000      62.89400000
I       15.72350000       0.00000000      62.89400000
I       12.57880000       0.00000000      72.32810000
I       12.57880000       3.14470000      69.18340000
I       15.72350000       0.00000000      69.18340000
I       12.57880000       6.28940000       3.14470000
I       12.57880000       9.43410000       0.00000000
I       15.72350000       6.28940000       0.00000000
I       12.57880000       6.28940000       9.43410000
I       12.57880000       9.43410000       6.28940000
I       15.72350000       6.28940000       6.28940000
I       12.57880000       6.28940000      15.72350000
I       12.57880000       9.43410000      12.57880000
I       15.72350000       6.28940000      12.57880000
I       12.57880000       6.28940000      22.01290000
I       12.57880000       9.43410000      18.86820000
I       15.72350000       6.28940000      18.86820000
I       12.57880000       6.28940000      28.30230000
I       12.57880000       9.43410000      25.15760000
I       15.72350000       6.28940000      25.15760000
I       12.57880000       6.28940000      34.59170000
I       12.57880000       9.43410000      31.44700000
I       15.72350000       6.28940000      31.44700000
I       12.57880000       6.28940000      40.88110000
I       12.57880000       9.43410000      37.73640000
I       15.72350000       6.28940000      37.73640000
I       12.57880000       6.28940000      47.17050000
I       12.57880000       9.43410000      44.02580000
I       15.72350000       6.28940000      44.02580000
I       12.57880000       6.28940000      53.45990000
I       12.57880000       9.43410000      50.31520000
I       15.72350000       6.28940000      50.31520000
I       12.57880000       6.28940000      59.74930000
I       12.57880000       9.43410000      56.60460000
I       15.72350000       6.28940000      56.60460000
I       12.57880000       6.28940000      66.03870000
I       12.57880000       9.43410000      62.89400000
I       15.72350000       6.28940000      62.89400000
I       12.57880000       6.28940000      72.32810000
I       12.57880000       9.43410000      69.18340000
I       15.72350000       6.28940000      69.18340000
I       12.57880000      12.57880000       3.14470000
I       12.57880000      15.72350000       0.00000000
I       15.72350000      12.57880000       0.00000000
I       12.57880000      12.57880000       9.43410000
I       12.57880000      15.72350000       6.28940000
I       15.72350000      12.57880000       6.28940000
I       12.57880000      12.57880000      15.72350000
I       12.57880000      15.72350000      12.57880000
I       15.72350000      12.57880000      12.57880000
I       12.57880000      12.57880000      22.01290000
I       12.57880000      15.72350000      18.86820000
I       15.72350000      12.57880000      18.86820000
I       12.57880000      12.57880000      28.30230000
I       12.57880000      15.72350000      25.15760000
I       15.72350000      12.57880000      25.15760000
I       12.57880000      12.57880000      34.59170000
I       12.57880000      15.72350000      31.44700000
I       15.72350000      12.57880000      31.44700000
I       12.57880000      12.57880000      40.88110000
I       12.57880000      15.72350000      37.73640000
I       15.72350000      12.57880000      37.73640000
I       12.57880000      12.57880000      47.17050000
I       12.57880000      15.72350000      44.02580000
I       15.72350000      12.57880000      44.02580000
I       12.57880000      12.57880000      53.45990000
I       12.57880000      15.72350000      50.31520000
I       15.72350000      12.57880000      50.31520000
I       12.57880000      12.57880000      59.74930000
I       12.57880000      15.72350000      56.60460000
I       15.72350000      12.57880000      56.60460000
I       12.57880000      12.57880000      66.03870000
I       12.57880000      15.72350000      62.89400000
I       15.72350000      12.57880000      62.89400000
I       12.57880000      12.57880000      72.32810000
I       12.57880000      15.72350000      69.18340000
I       15.72350000      12.57880000      69.18340000
I       12.57880000      18.86820000       3.14470000
I       12.57880000      22.01290000       0.00000000
I       15.72350000      18.86820000       0.00000000
I       12.57880000      18.86820000       9.43410000
I       12.57880000      22.01290000       6.28940000
I       15.72350000      18.86820000       6.28940000
I       12.57880000      18.86820000      15.72350000
I       12.57880000      22.01290000      12.57880000
I       15.72350000      18.86820000      12.57880000
I       12.57880000      18.86820000      22.01290000
I       12.57880000      22.01290000      18.86820000
I       15.72350000      18.86820000      18.86820000
I       12.57880000      18.86820000      28.30230000
I       12.57880000      22.01290000      25.15760000
I       15.72350000      18.86820000      25.15760000
I       12.57880000      18.86820000      34.59170000
I       12.57880000      22.01290000      31.44700000
I       15.72350000      18.86820000      31.44700000
I       12.57880000      18.86820000      40.88110000
I       12.57880000      22.01290000      37.73640000
I       15.72350000      18.86820000      37.73640000
I       12.57880000      18.86820000      47.17050000
I       12.57880000      22.01290000      44.02580000
I       15.72350000      18.86820000      44.02580000
I       12.57880000      18.86820000      53.45990000
I       12.57880000      22.01290000      50.31520000
I       15.72350000      18.86820000      50.31520000
I       12.57880000      18.86820000      59.74930000
I       12.57880000      22.01290000      56.60460000
I       15.72350000      18.86820000      56.60460000
I       12.57880000      18.86820000      66.03870000
I       12.57880000      22.01290000      62.89400000
I       15.72350000      18.86820000      62.89400000
I       12.57880000      18.86820000      72.32810000
I       12.57880000      22.01290000      69.18340000
I       15.72350000      18.86820000      69.18340000
I       12.57880000      25.15760000       3.14470000
I       12.57880000      28.30230000       0.00000000
I       15.72350000      25.15760000       0.00000000
I       12.57880000      25.15760000       9.43410000
I       12.57880000      28.30230000       6.28940000
I       15.72350000      25.15760000       6.28940000
I       12.57880000      25.15760000      15.72350000
I       12.57880000      28.30230000      12.57880000
I       15.72350000      25.15760000      12.57880000
I       12.57880000      25.15760000      22.01290000
I       12.57880000      28.30230000      18.86820000
I       15.72350000      25.15760000      18.86820000
I       12.57880000      25.15760000      28.30230000
I       12.57880000      28.30230000      25.15760000
I       15.72350000      25.15760000      25.15760000
I       12.57880000      25.15760000      34.59170000
I       12.57880000      28.30230000      31.44700000
I       15.72350000      25.15760000      31.44700000
I       12.57880000      25.15760000      40.88110000
I       12.57880000      28.30230000      37.73640000
I       15.72350000      25.15760000      37.73640000
I       12.57880000      25.15760000      47.17050000
I       12.57880000      28.30230000      44.02580000
I       15.72350000      25.15760000      44.02580000
I       12.57880000      25.15760000      53.45990000
I       12.57880000      28.30230000      50.31520000
I       15.72350000      25.15760000      50.31520000
I       12.57880000      25.15760000      59.74930000
I       12.57880000      28.30230000      56.60460000
I       15.72350000      25.15760000      56.60460000
I       12.57880000      25.15760000      66.03870000
I       12.57880000      28.30230000      62.89400000
I       15.72350000      25.15760000      62.89400000
I       12.57880000      25.15760000      72.32810000
I       12.57880000      28.30230000      69.18340000
I       15.72350000      25.15760000      69.18340000
I       12.57880000      31.44700000       3.14470000
I       12.57880000      34.59170000       0.00000000
I       15.72350000      31.44700000       0.00000000
I       12.57880000      31.44700000       9.43410000
I       12.57880000      34.59170000       6.28940000
I       15.72350000      31.44700000       6.28940000
I       12.57880000      31.44700000      15.72350000
I       12.57880000      34.59170000      12.57880000
I       15.72350000      31.44700000      12.57880000
I       12.57880000      31.44700000      22.01290000
I       12.57880000      34.59170000      18.86820000
I       15.72350000      31.44700000      18.86820000
I       12.57880000      31.44700000      28.30230000
I       12.57880000      34.59170000      25.15760000
I       15.72350000      31.44700000      25.15760000
I       12.57880000      31.44700000      34.59170000
I       12.57880000      34.59170000      31.44700000
I       15.72350000      31.44700000      31.44700000
I       12.57880000      31.44700000      40.88110000
I       12.57880000      34.59170000      37.73640000
I       15.72350000      31.44700000      37.73640000
I       12.57880000      31.44700000      47.17050000
I       12.57880000      34.59170000      44.02580000
I       15.72350000      31.44700000      44.02580000
I       12.57880000      31.44700000      53.45990000
I       12.57880000      34.59170000      50.31520000
I       15.72350000      31.44700000      50.31520000
I       12.57880000      31.44700000      59.74930000
I       12.57880000      34.59170000      56.60460000
I       15.72350000      31.44700000      56.60460000
I       12.57880000      31.44700000      66.03870000
I       12.57880000      34.59170000      62.89400000
I       15.72350000      31.44700000      62.89400000
I       12.57880000      31.44700000      72.32810000
I       12.57880000      34.59170000      69.18340000
I       15.72350000      31.44700000      69.18340000
I       12.57880000      37.73640000       3.14470000
I       12.57880000      40.88110000       0.00000000
I       15.72350000      37.73640000       0.00000000
I       12.57880000      37.73640000       9.43410000
I       12.57880000      40.88110000       6.28940000
I       15.72350000      37.73640000       6.28940000
I       12.57880000      37.73640000      15.72350000
I       12.57880000      40.88110000      12.57880000
I       15.72350000      37.73640000      12.57880000
I       12.57880000      37.73640000      22.01290000
I       12.57880000      40.88110000      18.86820000
I       15.72350000      37.73640000      18.86820000
I       12.57880000      37.73640000      28.30230000
I       12.57880000      40.88110000      25.15760000
I       15.72350000      37.73640000      25.15760000
I       12.57880000      37.73640000      34.59170000
I       12.57880000      40.88110000      31.44700000
I       15.72350000      37.73640000      31.44700000
I       12.57880000      37.73640000      40.88110000
I       12.57880000      40.88110000      37.73640000
I       15.72350000      37.73640000      37.73640000
I       12.57880000      37.73640000      47.17050000
I       12.57880000      40.88110000      44.02580000
I       15.72350000      37.73640000      44.02580000
I       12.57880000      37.73640000      53.45990000
I       12.57880000      40.88110000      50.31520000
I       15.72350000      37.73640000      50.31520000
I       12.57880000      37.73640000      59.74930000
I       12.57880000      40.88110000      56.60460000
I       15.72350000      37.73640000      56.60460000
I       12.57880000      37.73640000      66.03870000
I       12.57880000      40.88110000      62.89400000
I       15.72350000      37.73640000      62.89400000
I       12.57880000      37.73640000      72.32810000
I       12.57880000      40.88110000      69.18340000
I       15.72350000      37.73640000      69.18340000
I       12.57880000      44.02580000       3.14470000
I       12.57880000      47.17050000       0.00000000
I       15.72350000      44.02580000       0.00000000
I       12.57880000      44.02580000       9.43410000
I       12.57880000      47.17050000       6.28940000
I       15.72350000      44.02580000       6.28940000
I       12.57880000      44.02580000      15.72350000
I       12.57880000      47.17050000      12.57880000
I       15.72350000      44.02580000      12.57880000
I       12.57880000      44.02580000      22.01290000
I       12.57880000      47.17050000      18.86820000
I       15.72350000      44.02580000      18.86820000
I       12.57880000      44.02580000      28.30230000
I       12.57880000      47.17050000      25.15760000
I       15.72350000      44.02580000      25.15760000
I       12.57880000      44.02580000      34.59170000
I       12.57880000      47.17050000      31.44700000
I       15.72350000      44.02580000      31.44700000
I       12.57880000      44.02580000      40.88110000
I       12.57880000      47.17050000      37.73640000
I       15.72350000      44.02580000      37.73640000
I       12.57880000      44.02580000      47.17050000
I       12.57880000      47.17050000      44.02580000
I       15.72350000      44.02580000      44.02580000
I       12.57880000      44.02580000      53.45990000
I       12.57880000      47.17050000      50.31520000
I       15.72350000      44.02580000      50.31520000
I       12.57880000      44.02580000      59.74930000
I       12.57880000      47.17050000      56.60460000
I       15.72350000      44.02580000      56.60460000
I       12.57880000      44.02580000      66.03870000
I       12.57880000      47.17050000      62.89400000
I       15.72350000      44.02580000      62.89400000
I       12.57880000      44.02580000      72.32810000
I       12.57880000      47.17050000      69.18340000
I       15.72350000      44.02580000      69.18340000
I       12.57880000      50.31520000       3.14470000
I       12.57880000      53.45990000       0.00000000
I       15.72350000      50.31520000       0.00000000
I       12.57880000      50.31520000       9.43410000
I       12.57880000      53.45990000       6.28940000
I       15.72350000      50.31520000       6.28940000
I       12.57880000      50.31520000      15.72350000
I       12.57880000      53.45990000      12.57880000
I       15.72350000      50.31520000      12.57880000
I       12.57880000      50.31520000      22.01290000
I       12.57880000      53.45990000      18.86820000
I       15.72350000      50.31520000      18.86820000
I       12.57880000      50.31520000      28.30230000
I       12.57880000      53.45990000      25.15760000
I       15.72350000      50.31520000      25.15760000
I       12.57880000      50.31520000      34.59170000
I       12.57880000      53.45990000      31.44700000
I       15.72350000      50.31520000      31.44700000
I       12.57880000      50.31520000      40.88110000
I       12.57880000      53.45990000      37.73640000
I       15.72350000      50.31520000      37.73640000
I       12.57880000      50.31520000      47.17050000
I       12.57880000      53.45990000      44.02580000
I       15.72350000      50.31520000      44.02580000
I       12.57880000      50.31520000      53.45990000
I       12.57880000      53.45990000      50.31520000
I       15.72350000      50.31520000      50.31520000
I       12.57880000      50.31520000      59.74930000
I       12.57880000      53.45990000      56.60460000
I       15.72350000      50.31520000      56.60460000
I       12.57880000      50.31520000      66.03870000
I       12.57880000      53.45990000      62.89400000
I       15.72350000      50.31520000      62.89400000
I       12.57880000      50.31520000      72.32810000
I       12.57880000      53.45990000      69.18340000
I       15.72350000      50.31520000      69.18340000
I       12.57880000      56.60460000       3.14470000
I       12.57880000      59.74930000       0.00000000
I       15.72350000      56.60460000       0.00000000
I       12.57880000      56.60460000       9.43410000
I       12.57880000      59.74930000       6.28940000
I       15.72350000      56.60460000       6.28940000
I       12.57880000      56.60460000      15.72350000
I       12.57880000      59.74930000      12.57880000
I       15.72350000      56.60460000      12.57880000
I       12.57880000      56.60460000      22.01290000
I       12.57880000      59.74930000      18.86820000
I       15.72350000      56.60460000      18.86820000
I       12.57880000      56.60460000      28.30230000
I       12.57880000      59.74930000      25.15760000
I       15.72350000      56.60460000      25.15760000
I       12.57880000      56.60460000      34.59170000
I       12.57880000      59.74930000      31.44700000
I       15.72350000      56.60460000      31.44700000
I       12.57880000      56.60460000      40.88110000
I       12.57880000      59.74930000      37.73640000
I       15.72350000      56.60460000      37.73640000
I       12.57880000      56.60460000      47.17050000
I       12.57880000      59.74930000      44.02580000
I       15.72350000      56.60460000      44.02580000
I       12.57880000      56.60460000      53.45990000
I       12.57880000      59.74930000      50.31520000
I       15.72350000      56.60460000      50.31520000
I       12.57880000      56.60460000      59.74930000
I       12.57880000      59.74930000      56.60460000
I       15.72350000      56.60460000      56.60460000
I       12.57880000      56.60460000      66.03870000
I       12.57880000      59.74930000      62.89400000
I       15.72350000      56.60460000      62.89400000
I       12.57880000      56.60460000      72.32810000
I       12.57880000      59.74930000      69.18340000
I       15.72350000      56.60460000      69.18340000
I       12.57880000      62.89400000       3.14470000
I       12.57880000      66.03870000       0.00000000
I       15.72350000      62.89400000       0.00000000
I       12.57880000      62.89400000       9.43410000
I       12.57880000      66.03870000       6.28940000
I       15.72350000      62.89400000       6.28940000
I       12.57880000      62.89400000      15.72350000
I       12.57880000      66.03870000      12.57880000
I       15.72350000      62.89400000      12.57880000
I       12.57880000      62.89400000      22.01290000
I       12.57880000      66.03870000      18.86820000
I       15.72350000      62.89400000      18.86820000
I       12.57880000      62.89400000      28.30230000
I       12.57880000      66.03870000      25.15760000
I       15.72350000      62.89400000      25.15760000
I       12.57880000      62.89400000      34.59170000
I       12.57880000      66.03870000      31.44700000
I       15.72350000      62.89400000      31.44700000
I       12.57880000      62.89400000      40.88110000
I       12.57880000      66.03870000      37.73640000
I       15.72350000      62.89400000      37.73640000
I       12.57880000      62.89400000      47.17050000
I       12.57880000      66.03870000      44.02580000
I       15.72350000      62.89400000      44.02580000
I       12.57880000      62.89400000      53.45990000
I       12.57880000      66.03870000      50.31520000
I       15.72350000      62.89400000      50.31520000
I       12.57880000      62.89400000      59.74930000
I       12.57880000      66.03870000      56.60460000
I       15.72350000      62.89400000      56.60460000
I       12.57880000      62.89400000      66.03870000
I       12.57880000      66.03870000      62.89400000
I       15.72350000      62.89400000      62.89400000
I       12.57880000      62.89400000      72.32810000
I       12.57880000      66.03870000      69.18340000
I       15.72350000      62.89400000      69.18340000
I       12.57880000      69.18340000       3.14470000
I       12.57880000      72.32810000       0.00000000
I       15.72350000      69.18340000       0.00000000
I       12.57880000      69.18340000       9.43410000
I       12.57880000      72.32810000       6.28940000
I       15.72350000      69.18340000       6.28940000
I       12.57880000      69.18340000      15.72350000
I       12.57880000      72.32810000      12.57880000
I       15.72350000      69.18340000      12.57880000
I       12.57880000      69.18340000      22.01290000
I       12.57880000      72.32810000      18.86820000
I       15.72350000      69.18340000      18.86820000
I       12.57880000      69.18340000      28.30230000
I       12.57880000      72.32810000      25.15760000
I       15.72350000      69.18340000      25.15760000
I       12.57880000      69.18340000      34.59170000
I       12.57880000      72.32810000      31.44700000
I       15.72350000      69.18340000      31.44700000
I       12.57880000      69.18340000      40.88110000
I       12.57880000      72.32810000      37.73640000
I       15.72350000      69.18340000      37.73640000
I       12.57880000      69.18340000      47.17050000
I       12.57880000      72.32810000      44.02580000
I       15.72350000      69.18340000      44.02580000
I       12.57880000      69.18340000      53.45990000
I       12.57880000      72.32810000      50.31520000
I       15.72350000      69.18340000      50.31520000
I       12.57880000      69.18340000      59.74930000
I       12.57880000      72.32810000      56.60460000
I       15.72350000      69.18340000      56.60460000
I       12.57880000      69.18340000      66.03870000
I       12.57880000      72.32810000      62.89400000
I       15.72350000      69.18340000      62.89400000
I       12.57880000      69.18340000      72.32810000
I       12.57880000      72.32810000      69.18340000
I       15.72350000      69.18340000      69.18340000
I       18.86820000       0.00000000       3.14470000
I       18.86820000       3.14470000       0.00000000
I       22.01290000       0.00000000       0.00000000
I       18.86820000       0.00000000       9.43410000
I       18.86820000       3.14470000       6.28940000
I       22.01290000       0.00000000       6.28940000
I       18.86820000       0.00000000      15.72350000
I       18.86820000       3.14470000      12.57880000
I       22.01290000       0.00000000      12.57880000
I       18.86820000       0.00000000      22.01290000
I       18.86820000       3.14470000      18.86820000
I       22.01290000       0.00000000      18.86820000
I       18.86820000       0.00000000      28.30230000
I       18.86820000       3.14470000      25.15760000
I       22.01290000       0.00000000      25.15760000
I       18.86820000       0.00000000      34.59170000
I       18.86820000       3.14470000      31.44700000
I       22.01290000       0.00000000      31.44700000
I       18.86820000       0.00000000      40.88110000
I       18.86820000       3.14470000      37.73640000
I       22.01290000       0.00000000      37.73640000
I       18.86820000       0.00000000      47.17050000
I       18.86820000       3.14470000      44.02580000
I       22.01290000       0.00000000      44.02580000
I       18.86820000       0.00000000      53.45990000
I       18.86820000       3.14470000      50.31520000
I       22.01290000       0.00000000      50.31520000
I       18.86820000       0.00000000      59.74930000
I       18.86820000       3.14470000      56.60460000
I       22.01290000       0.00000000      56.60460000
I       18.86820000       0.00000000      66.03870000
I       18.86820000       3.14470000      62.89400000
I       22.01290000       0.00000000      62.89400000
I       18.86820000       0.00000000      72.32810000
I       18.86820000       3.14470000      69.18340000
I       22.01290000       0.00000000      69.18340000
I       18.86820000       6.28940000       3.14470000
I       18.86820000       9.43410000       0.00000000
I       22.01290000       6.28940000       0.00000000
I       18.86820000       6.28940000       9.43410000
I       18.86820000       9.43410000       6.28940000
I       22.01290000       6.28940000       6.28940000
I       18.86820000       6.28940000      15.72350000
I       18.86820000       9.43410000      12.57880000
I       22.01290000       6.28940000      12.57880000
I       18.86820000       6.28940000      22.01290000
I       18.86820000       9.43410000      18.86820000
I       22.01290000       6.28940000      18.86820000
I       18.86820000       6.28940000      28.30230000
I       18.86820000       9.43410000      25.15760000
I       22.01290000       6.28940000      25.15760000
I       18.86820000       6.28940000      34.59170000
I       18.86820000       9.43410000      31.44700000
I       22.01290000       6.28940000      31.44700000
I       18.86820000       6.28940000      40.88110000
I       18.86820000       9.43410000      37.73640000
I       22.01290000       6.28940000      37.73640000
I       18.86820000       6.28940000      47.17050000
I       18.86820000       9.43410000      44.02580000
I       22.01290000       6.28940000      44.02580000
I       18.86820000       6.28940000      53.45990000
I       18.86820000       9.43410000      50.31520000
I       22.01290000       6.28940000      50.31520000
I       18.86820000       6.28940000      59.74930000
I       18.86820000       9.43410000      56.60460000
I       22.01290000       6.28940000      56.60460000
I       18.86820000       6.28940000      66.03870000
I       18.86820000       9.43410000      62.89400000
I       22.01290000       6.28940000      62.89400000
I       18.86820000       6.28940000      72.32810000
I       18.86820000       9.43410000      69.18340000
I       22.01290000       6.28940000      69.18340000
I       18.86820000      12.57880000       3.14470000
I       18.86820000      15.72350000       0.00000000
I       22.01290000      12.57880000       0.00000000
I       18.86820000      12.57880000       9.43410000
I       18.86820000      15.72350000       6.28940000
I       22.01290000      12.57880000       6.28940000
I       18.86820000      12.57880000      15.72350000
I       18.86820000      15.72350000      12.57880000
I       22.01290000      12.57880000      12.57880000
I       18.86820000      12.57880000      22.01290000
I       18.86820000      15.72350000      18.86820000
I       22.01290000      12.57880000      18.86820000
I       18.86820000      12.57880000      28.30230000
I       18.86820000      15.72350000      25.15760000
I       22.01290000      12.57880000      25.15760000
I       18.86820000      12.57880000      34.59170000
I       18.86820000      15.72350000      31.44700000
I       22.01290000      12.57880000      31.44700000
I       18.86820000      12.57880000      40.88110000
I       18.86820000      15.72350000      37.73640000
I       22.01290000      12.57880000      37.73640000
I       18.86820000      12.57880000      47.17050000
I       18.86820000      15.72350000      44.02580000
I       22.01290000      12.57880000      44.02580000
I       18.86820000      12.57880000      53.45990000
I       18.86820000      15.72350000      50.31520000
I       22.01290000      12.57880000      50.31520000
I       18.86820000      12.57880000      59.74930000
I       18.86820000      15.72350000      56.60460000
I       22.01290000      12.57880000      56.60460000
I       18.86820000      12.57880000      66.03870000
I       18.86820000      15.72350000      62.89400000
I       22.01290000      12.57880000      62.89400000
I       18.86820000      12.57880000      72.32810000
I       18.86820000      15.72350000      69.18340000
I       22.01290000      12.57880000      69.18340000
I       18.86820000      18.86820000       3.14470000
I       18.86820000      22.01290000       0.00000000
I       22.01290000      18.86820000       0.00000000
I       18.86820000      18.86820000       9.43410000
I       18.86820000      22.01290000       6.28940000
I       22.01290000      18.86820000       6.28940000
I       18.86820000      18.86820000      15.72350000
I       18.86820000      22.01290000      12.57880000
I       22.01290000      18.86820000      12.57880000
I       18.86820000      18.86820000      22.01290000
I       18.86820000      22.01290000      18.86820000
I       22.01290000      18.86820000      18.86820000
I       18.86820000      18.86820000      28.30230000
I       18.86820000      22.01290000      25.15760000
I       22.01290000      18.86820000      25.15760000
I       18.86820000      18.86820000      34.59170000
I       18.86820000      22.01290000      31.44700000
I       22.01290000      18.86820000      31.44700000
I       18.86820000      18.86820000      40.88110000
I       18.86820000      22.01290000      37.73640000
I       22.01290000      18.86820000      37.73640000
I       18.86820000      18.86820000      47.17050000
I       18.86820000      22.01290000      44.02580000
I       22.01290000      18.86820000      44.02580000
I       18.86820000      18.86820000      53.45990000
I       18.86820000      22.01290000      50.31520000
I       22.01290000      18.86820000      50.31520000
I       18.86820000      18.86820000      59.74930000
I       18.86820000      22.01290000      56.60460000
I       22.01290000      18.86820000      56.60460000
I       18.86820000      18.86820000      66.03870000
I       18.86820000      22.01290000      62.89400000
I       22.01290000      18.86820000      62.89400000
I       18.86820000      18.86820000      72.32810000
I       18.86820000      22.01290000      69.18340000
I       22.01290000      18.86820000      69.18340000
I       18.86820000      25.15760000       3.14470000
I       18.86820000      28.30230000       0.00000000
I       22.01290000      25.15760000       0.00000000
I       18.86820000      25.15760000       9.43410000
I       18.86820000      28.30230000       6.28940000
I       22.01290000      25.15760000       6.28940000
I       18.86820000      25.15760000      15.72350000
I       18.86820000      28.30230000      12.57880000
I       22.01290000      25.15760000      12.57880000
I       18.86820000      25.15760000      22.01290000
I       18.86820000      28.30230000      18.86820000
I       22.01290000      25.15760000      18.86820000
I       18.86820000      25.15760000      28.30230000
I       18.86820000      28.30230000      25.15760000
I       22.01290000      25.15760000      25.15760000
I       18.86820000      25.15760000      34.59170000
I       18.86820000      28.30230000      31.44700000
I       22.01290000      25.15760000      31.44700000
I       18.86820000      25.15760000      40.88110000
I       18.86820000      28.30230000      37.73640000
I       22.01290000      25.15760000      37.73640000
I       18.86820000      25.15760000      47.17050000
I       18.86820000      28.30230000      44.02580000
I       22.01290000      25.15760000      44.02580000
I       18.86820000      25.15760000      53.45990000
I       18.86820000      28.30230000      50.31520000
I       22.01290000      25.15760000      50.31520000
I       18.86820000      25.15760000      59.74930000
I       18.86820000      28.30230000      56.60460000
I       22.01290000      25.15760000      56.60460000
I       18.86820000      25.15760000      66.03870000
I       18.86820000      28.30230000      62.89400000
I       22.01290000      25.15760000      62.89400000
I       18.86820000      25.15760000      72.32810000
I       18.86820000      28.30230000      69.18340000
I       22.01290000      25.15760000      69.18340000
I       18.86820000      31.44700000       3.14470000
I       18.86820000      34.59170000       0.00000000
I       22.01290000      31.44700000       0.00000000
I       18.86820000      31.44700000       9.43410000
I       18.86820000      34.59170000       6.28940000
I       22.01290000      31.44700000       6.28940000
I       18.86820000      31.44700000      15.72350000
I       18.86820000      34.59170000      12.57880000
I       22.01290000      31.44700000      12.57880000
I       18.86820000      31.44700000      22.01290000
I       18.86820000      34.59170000      18.86820000
I       22.01290000      31.44700000      18.86820000
I       18.86820000      31.44700000      28.30230000
I       18.86820000      34.59170000      25.15760000
I       22.01290000      31.44700000      25.15760000
I       18.86820000      31.44700000      34.59170000
I       18.86820000      34.59170000      31.44700000
I       22.01290000      31.44700000      31.44700000
I       18.86820000      31.44700000      40.88110000
I       18.86820000      34.59170000      37.73640000
I       22.01290000      31.44700000      37.73640000
I       18.86820000      31.44700000      47.17050000
I       18.86820000      34.59170000      44.02580000
I       22.01290000      31.44700000      44.02580000
I       18.86820000      31.44700000      53.45990000
I       18.86820000      34.59170000      50.31520000
I       22.01290000      31.44700000      50.31520000
I       18.86820000      31.44700000      59.74930000
I       18.86820000      34.59170000      56.60460000
I       22.01290000      31.44700000      56.60460000
I       18.86820000      31.44700000      66.03870000
I       18.86820000      34.59170000      62.89400000
I       22.01290000      31.44700000      62.89400000
I       18.86820000      31.44700000      72.32810000
I       18.86820000      34.59170000      69.18340000
I       22.01290000      31.44700000      69.18340000
I       18.86820000      37.73640000       3.14470000
I       18.86820000      40.88110000       0.00000000
I       22.01290000      37.73640000       0.00000000
I       18.86820000      37.73640000       9.43410000
I       18.86820000      40.88110000       6.28940000
I       22.01290000      37.73640000       6.28940000
I       18.86820000      37.73640000      15.72350000
I       18.86820000      40.88110000      12.57880000
I       22.01290000      37.73640000      12.57880000
I       18.86820000      37.73640000      22.01290000
I       18.86820000      40.88110000      18.86820000
I       22.01290000      37.73640000      18.86820000
I       18.86820000      37.73640000      28.30230000
I       18.86820000      40.88110000      25.15760000
I       22.01290000      37.73640000      25.15760000
I       18.86820000      37.73640000      34.59170000
I       18.86820000      40.88110000      31.44700000
I       22.01290000      37.73640000      31.44700000
I       18.86820000      37.73640000      40.88110000
I       18.86820000      40.88110000      37.73640000
I       22.01290000      37.73640000      37.73640000
I       18.86820000      37.73640000      47.17050000
I       18.86820000      40.88110000      44.02580000
I       22.01290000      37.73640000      44.02580000
I       18.86820000      37.73640000      53.45990000
I       18.86820000      40.88110000      50.31520000
I       22.01290000      37.73640000      50.31520000
I       18.86820000      37.73640000      59.74930000
I       18.86820000      40.88110000      56.60460000
I       22.01290000      37.73640000      56.60460000
I       18.86820000      37.73640000      66.03870000
I       18.86820000      40.88110000      62.89400000
I       22.01290000      37.73640000      62.89400000
I       18.86820000      37.73640000      72.32810000
I       18.86820000      40.88110000      69.18340000
I       22.01290000      37.73640000      69.18340000
I       18.86820000      44.02580000       3.14470000
I       18.86820000      47.17050000       0.00000000
I       22.01290000      44.02580000       0.00000000
I       18.86820000      44.02580000       9.43410000
I       18.86820000      47.17050000       6.28940000
I       22.01290000      44.02580000       6.28940000
I       18.86820000      44.02580000      15.72350000
I       18.86820000      47.17050000      12.57880000
I       22.01290000      44.02580000      12.57880000
I       18.86820000      44.02580000      22.01290000
I       18.86820000      47.17050000      18.86820000
I       22.01290000      44.02580000      18.86820000
I       18.86820000      44.02580000      28.30230000
I       18.86820000      47.17050000      25.15760000
I       22.01290000      44.02580000      25.15760000
I       18.86820000      44.02580000      34.59170000
I       18.86820000      47.17050000      31.44700000
I       22.01290000      44.02580000      31.44700000
I       18.86820000      44.02580000      40.88110000
I       18.86820000      47.17050000      37.73640000
I       22.01290000      44.02580000      37.73640000
I       18.86820000      44.02580000      47.17050000
I       18.86820000      47.17050000      44.02580000
I       22.01290000      44.02580000      44.02580000
I       18.86820000      44.02580000      53.45990000
I       18.86820000      47.17050000      50.31520000
I       22.01290000      44.02580000      50.31520000
I       18.86820000      44.02580000      59.74930000
I       18.86820000      47.17050000      56.60460000
I       22.01290000      44.02580000      56.60460000
I       18.86820000      44.02580000      66.03870000
I       18.86820000      47.17050000      62.89400000
I       22.01290000      44.02580000      62.89400000
I       18.86820000      44.02580000      72.32810000
I       18.86820000      47.17050000      69.18340000
I       22.01290000      44.02580000      69.18340000
I       18.86820000      50.31520000       3.14470000
I       18.86820000      53.45990000       0.00000000
I       22.01290000      50.31520000       0.00000000
I       18.86820000      50.31520000       9.43410000
I       18.86820000      53.45990000       6.28940000
I       22.01290000      50.31520000       6.28940000
I       18.86820000      50.31520000      15.72350000
I       18.86820000      53.45990000      12.57880000
I       22.01290000      50.31520000      12.57880000
I       18.86820000      50.31520000      22.01290000
I       18.86820000      53.45990000      18.86820000
I       22.01290000      50.31520000      18.86820000
I       18.86820000      50.31520000      28.30230000
I       18.86820000      53.45990000      25.15760000
I       22.01290000      50.31520000      25.15760000
I       18.86820000      50.31520000      34.59170000
I       18.86820000      53.45990000      31.44700000
I       22.01290000      50.31520000      31.44700000
I       18.86820000      50.31520000      40.88110000
I       18.86820000      53.45990000      37.73640000
I       22.01290000      50.31520000      37.73640000
I       18.86820000      50.31520000      47.17050000
I       18.86820000      53.45990000      44.02580000
I       22.01290000      50.31520000      44.02580000
I       18.86820000      50.31520000      53.45990000
I       18.86820000      53.45990000      50.31520000
I       22.01290000      50.31520000      50.31520000
I       18.86820000      50.31520000      59.74930000
I       18.86820000      53.45990000      56.60460000
I       22.01290000      50.31520000      56.60460000
I       18.86820000      50.31520000      66.03870000
I       18.86820000      53.45990000      62.89400000
I       22.01290000      50.31520000      62.89400000
I       18.86820000      50.31520000      72.32810000
I       18.86820000      53.45990000      69.18340000
I       22.01290000      50.31520000      69.18340000
I       18.86820000      56.60460000       3.14470000
I       18.86820000      59.74930000       0.00000000
I       22.01290000      56.60460000       0.00000000
I       18.86820000      56.60460000       9.43410000
I       18.86820000      59.74930000       6.28940000
I       22.01290000      56.60460000       6.28940000
I       18.86820000      56.60460000      15.72350000
I       18.86820000      59.74930000      12.57880000
I       22.01290000      56.60460000      12.57880000
I       18.86820000      56.60460000      22.01290000
I       18.86820000      59.74930000      18.86820000
I       22.01290000      56.60460000      18.86820000
I       18.86820000      56.60460000      28.30230000
I       18.86820000      59.74930000      25.15760000
I       22.01290000      56.60460000      25.15760000
I       18.86820000      56.60460000      34.59170000
I       18.86820000      59.74930000      31.44700000
I       22.01290000      56.60460000      31.44700000
I       18.86820000      56.60460000      40.88110000
I       18.86820000      59.74930000      37.73640000
I       22.01290000      56.60460000      37.73640000
I       18.86820000      56.60460000      47.17050000
I       18.86820000      59.74930000      44.02580000
I       22.01290000      56.60460000      44.02580000
I       18.86820000      56.60460000      53.45990000
I       18.86820000      59.74930000      50.31520000
I       22.01290000      56.60460000      50.31520000
I       18.86820000      56.60460000      59.74930000
I       18.86820000      59.74930000      56.60460000
I       22.01290000      56.60460000      56.60460000
I       18.86820000      56.60460000      66.03870000
I       18.86820000      59.74930000      62.89400000
I       22.01290000      56.60460000      62.89400000
I       18.86820000      56.60460000      72.32810000
I       18.86820000      59.74930000      69.18340000
I       22.01290000      56.60460000      69.18340000
I       18.86820000      62.89400000       3.14470000
I       18.86820000      66.03870000       0.00000000
I       22.01290000      62.89400000       0.00000000
I       18.86820000      62.89400000       9.43410000
I       18.86820000      66.03870000       6.28940000
I       22.01290000      62.89400000       6.28940000
I       18.86820000      62.89400000      15.72350000
I       18.86820000      66.03870000      12.57880000
I       22.01290000      62.89400000      12.57880000
I       18.86820000      62.89400000      22.01290000
I       18.86820000      66.03870000      18.86820000
I       22.01290000      62.89400000      18.86820000
I       18.86820000      62.89400000      28.30230000
I       18.86820000      66.03870000      25.15760000
I       22.01290000      62.89400000      25.15760000
I       18.86820000      62.89400000      34.59170000
I       18.86820000      66.03870000      31.44700000
I       22.01290000      62.89400000      31.44700000
I       18.86820000      62.89400000      40.88110000
I       18.86820000      66.03870000      37.73640000
I       22.01290000      62.89400000      37.73640000
I       18.86820000      62.89400000      47.17050000
I       18.86820000      66.03870000      44.02580000
I       22.01290000      62.89400000      44.02580000
I       18.86820000      62.89400000      53.45990000
I       18.86820000      66.03870000      50.31520000
I       22.01290000      62.89400000      50.31520000
I       18.86820000      62.89400000      59.74930000
I       18.86820000      66.03870000      56.60460000
I       22.01290000      62.89400000      56.60460000
I       18.86820000      62.89400000      66.03870000
I       18.86820000      66.03870000      62.89400000
I       22.01290000      62.89400000      62.89400000
I       18.86820000      62.89400000      72.32810000
I       18.86820000      66.03870000      69.18340000
I       22.01290000      62.89400000      69.18340000
I       18.86820000      69.18340000       3.14470000
I       18.86820000      72.32810000       0.00000000
I       22.01290000      69.18340000       0.00000000
I       18.86820000      69.18340000       9.43410000
I       18.86820000      72.32810000       6.28940000
I       22.01290000      69.18340000       6.28940000
I       18.86820000      69.18340000      15.72350000
I       18.86820000      72.32810000      12.57880000
I       22.01290000      69.18340000      12.57880000
I       18.86820000      69.18340000      22.01290000
I       18.86820000      72.32810000      18.86820000
I       22.01290000      69.18340000      18.86820000
I       18.86820000      69.18340000      28.30230000
I       18.86820000      72.32810000      25.15760000
I       22.01290000      69.18340000      25.15760000
I       18.86820000      69.18340000      34.59170000
I       18.86820000      72.32810000      31.44700000
I       22.01290000      69.18340000      31.44700000
I       18.86820000      69.18340000      40.88110000
I       18.86820000      72.32810000      37.73640000
I       22.01290000      69.18340000      37.73640000
I       18.86820000      69.18340000      47.17050000
I       18.86820000      72.32810000      44.02580000
I       22.01290000      69.18340000      44.02580000
I       18.86820000      69.18340000      53.45990000
I       18.86820000      72.32810000      50.31520000
I       22.01290000      69.18340000      50.31520000
I       18.86820000      69.18340000      59.74930000
I       18.86820000      72.32810000      56.60460000
I       22.01290000      69.18340000      56.60460000
I       18.86820000      69.18340000      66.03870000
I       18.86820000      72.32810000      62.89400000
I       22.01290000      69.18340000      62.89400000
I       18.86820000      69.18340000      72.32810000
I       18.86820000      72.32810000      69.18340000
I       22.01290000      69.18340000      69.18340000
I       25.15760000       0.00000000       3.14470000
I       25.15760000       3.14470000       0.00000000
I       28.30230000       0.00000000       0.00000000
I       25.15760000       0.00000000       9.43410000
I       25.15760000       3.14470000       6.28940000
I       28.30230000       0.00000000       6.28940000
I       25.15760000       0.00000000      15.72350000
I       25.15760000       3.14470000      12.57880000
I       28.30230000       0.00000000      12.57880000
I       25.15760000       0.00000000      22.01290000
I       25.15760000       3.14470000      18.86820000
I       28.30230000       0.00000000      18.86820000
I       25.15760000       0.00000000      28.30230000
I       25.15760000       3.14470000      25.15760000
I       28.30230000       0.00000000      25.15760000
I       25.15760000       0.00000000      34.59170000
I       25.15760000       3.14470000      31.44700000
I       28.30230000       0.00000000      31.44700000
I       25.15760000       0.00000000      40.88110000
I       25.15760000       3.14470000      37.73640000
I       28.30230000       0.00000000      37.73640000
I       25.15760000       0.00000000      47.17050000
I       25.15760000       3.14470000      44.02580000
I       28.30230000       0.00000000      44.02580000
I       25.15760000       0.00000000      53.45990000
I       25.15760000       3.14470000      50.31520000
I       28.30230000       0.00000000      50.31520000
I       25.15760000       0.00000000      59.74930000
I       25.15760000       3.14470000      56.60460000
I       28.30230000       0.00000000      56.60460000
I       25.15760000       0.00000000      66.03870000
I       25.15760000       3.14470000      62.89400000
I       28.30230000       0.00000000      62.89400000
I       25.15760000       0.00000000      72.32810000
I       25.15760000       3.14470000      69.18340000
I       28.30230000       0.00000000      69.18340000
I       25.15760000       6.28940000       3.14470000
I       25.15760000       9.43410000       0.00000000
I       28.30230000       6.28940000       0.00000000
I       25.15760000       6.28940000       9.43410000
I       25.15760000       9.43410000       6.28940000
I       28.30230000       6.28940000       6.28940000
I       25.15760000       6.28940000      15.72350000
I       25.15760000       9.43410000      12.57880000
I       28.30230000       6.28940000      12.57880000
I       25.15760000       6.28940000      22.01290000
I       25.15760000       9.43410000      18.86820000
I       28.30230000       6.28940000      18.86820000
I       25.15760000       6.28940000      28.30230000
I       25.15760000       9.43410000      25.15760000
I       28.30230000       6.28940000      25.15760000
I       25.15760000       6.28940000      34.59170000
I       25.15760000       9.43410000      31.44700000
I       28.30230000       6.28940000      31.44700000
I       25.15760000       6.28940000      40.88110000
I       25.15760000       9.43410000      37.73640000
I       28.30230000       6.28940000      37.73640000
I       25.15760000       6.28940000      47.17050000
I       25.15760000       9.43410000      44.02580000
I       28.30230000       6.28940000      44.02580000
I       25.15760000       6.28940000      53.45990000
I       25.15760000       9.43410000      50.31520000
I       28.30230000       6.28940000      50.31520000
I       25.15760000       6.28940000      59.74930000
I       25.15760000       9.43410000      56.60460000
I       28.30230000       6.28940000      56.60460000
I       25.15760000       6.28940000      66.03870000
I       25.15760000       9.43410000      62.89400000
I       28.30230000       6.28940000      62.89400000
I       25.15760000       6.28940000      72.32810000
I       25.15760000       9.43410000      69.18340000
I       28.30230000       6.28940000      69.18340000
I       25.15760000      12.57880000       3.14470000
I       25.15760000      15.72350000       0.00000000
I       28.30230000      12.57880000       0.00000000
I       25.15760000      12.57880000       9.43410000
I       25.15760000      15.72350000       6.28940000
I       28.30230000      12.57880000       6.28940000
I       25.15760000      12.57880000      15.72350000
I       25.15760000      15.72350000      12.57880000
I       28.30230000      12.57880000      12.57880000
I       25.15760000      12.57880000      22.01290000
I       25.15760000      15.72350000      18.86820000
I       28.30230000      12.57880000      18.86820000
I       25.15760000      12.57880000      28.30230000
I       25.15760000      15.72350000      25.15760000
I       28.30230000      12.57880000      25.15760000
I       25.15760000      12.57880000      34.59170000
I       25.15760000      15.72350000      31.44700000
I       28.30230000      12.57880000      31.44700000
I       25.15760000      12.57880000      40.88110000
I       25.15760000      15.72350000      37.73640000
I       28.30230000      12.57880000      37.73640000
I       25.15760000      12.57880000      47.17050000
I       25.15760000      15.72350000      44.02580000
I       28.30230000      12.57880000      44.02580000
I       25.15760000      12.57880000      53.45990000
I       25.15760000      15.72350000      50.31520000
I       28.30230000      12.57880000      50.31520000
I       25.15760000      12.57880000      59.74930000
I       25.15760000      15.72350000      56.60460000
I       28.30230000      12.57880000      56.60460000
I       25.15760000      12.57880000      66.03870000
I       25.15760000      15.72350000      62.89400000
I       28.30230000      12.57880000      62.89400000
I       25.15760000      12.57880000      72.32810000
I       25.15760000      15.72350000      69.18340000
I       28.30230000      12.57880000      69.18340000
I       25.15760000      18.86820000       3.14470000
I       25.15760000      22.01290000       0.00000000
I       28.30230000      18.86820000       0.00000000
I       25.15760000      18.86820000       9.43410000
I       25.15760000      22.01290000       6.28940000
I       28.30230000      18.86820000       6.28940000
I       25.15760000      18.86820000      15.72350000
I       25.15760000      22.01290000      12.57880000
I       28.30230000      18.86820000      12.57880000
I       25.15760000      18.86820000      22.01290000
I       25.15760000      22.01290000      18.86820000
I       28.30230000      18.86820000      18.86820000
I       25.15760000      18.86820000      28.30230000
I       25.15760000      22.01290000      25.15760000
I       28.30230000      18.86820000      25.15760000
I       25.15760000      18.86820000      34.59170000
I       25.15760000      22.01290000      31.44700000
I       28.30230000      18.86820000      31.44700000
I       25.15760000      18.86820000      40.88110000
I       25.15760000      22.01290000      37.73640000
I       28.30230000      18.86820000      37.73640000
I       25.15760000      18.86820000      47.17050000
I       25.15760000      22.01290000      44.02580000
I       28.30230000      18.86820000      44.02580000
I       25.15760000      18.86820000      53.45990000
I       25.15760000      22.01290000      50.31520000
I       28.30230000      18.86820000      50.31520000
I       25.15760000      18.86820000      59.74930000
I       25.15760000      22.01290000      56.60460000
I       28.30230000      18.86820000      56.60460000
I       25.15760000      18.86820000      66.03870000
I       25.15760000      22.01290000      62.89400000
I       28.30230000      18.86820000      62.89400000
I       25.15760000      18.86820000      72.32810000
I       25.15760000      22.01290000      69.18340000
I       28.30230000      18.86820000      69.18340000
I       25.15760000      25.15760000       3.14470000
I       25.15760000      28.30230000       0.00000000
I       28.30230000      25.15760000       0.00000000
I       25.15760000      25.15760000       9.43410000
I       25.15760000      28.30230000       6.28940000
I       28.30230000      25.15760000       6.28940000
I       25.15760000      25.15760000      15.72350000
I       25.15760000      28.30230000      12.57880000
I       28.30230000      25.15760000      12.57880000
I       25.15760000      25.15760000      22.01290000
I       25.15760000      28.30230000      18.86820000
I       28.30230000      25.15760000      18.86820000
I       25.15760000      25.15760000      28.30230000
I       25.15760000      28.30230000      25.15760000
I       28.30230000      25.15760000      25.15760000
I       25.15760000      25.15760000      34.59170000
I       25.15760000      28.30230000      31.44700000
I       28.30230000      25.15760000      31.44700000
I       25.15760000      25.15760000      40.88110000
I       25.15760000      28.30230000      37.73640000
I       28.30230000      25.15760000      37.73640000
I       25.15760000      25.15760000      47.17050000
I       25.15760000      28.30230000      44.02580000
I       28.30230000      25.15760000      44.02580000
I       25.15760000      25.15760000      53.45990000
I       25.15760000      28.30230000      50.31520000
I       28.30230000      25.15760000      50.31520000
I       25.15760000      25.15760000      59.74930000
I       25.15760000      28.30230000      56.60460000
I       28.30230000      25.15760000      56.60460000
I       25.15760000      25.15760000      66.03870000
I       25.15760000      28.30230000      62.89400000
I       28.30230000      25.15760000      62.89400000
I       25.15760000      25.15760000      72.32810000
I       25.15760000      28.30230000      69.18340000
I       28.30230000      25.15760000      69.18340000
I       25.15760000      31.44700000       3.14470000
I       25.15760000      34.59170000       0.00000000
I       28.30230000      31.44700000       0.00000000
I       25.15760000      31.44700000       9.43410000
I       25.15760000      34.59170000       6.28940000
I       28.30230000      31.44700000       6.28940000
I       25.15760000      31.44700000      15.72350000
I       25.15760000      34.59170000      12.57880000
I       28.30230000      31.44700000      12.57880000
I       25.15760000      31.44700000      22.01290000
I       25.15760000      34.59170000      18.86820000
I       28.30230000      31.44700000      18.86820000
I       25.15760000      31.44700000      28.30230000
I       25.15760000      34.59170000      25.15760000
I       28.30230000      31.44700000      25.15760000
I       25.15760000      31.44700000      34.59170000
I       25.15760000      34.59170000      31.44700000
I       28.30230000      31.44700000      31.44700000
I       25.15760000      31.44700000      40.88110000
I       25.15760000      34.59170000      37.73640000
I       28.30230000      31.44700000      37.73640000
I       25.15760000      31.44700000      47.17050000
I       25.15760000      34.59170000      44.02580000
I       28.30230000      31.44700000      44.02580000
I       25.15760000      31.44700000      53.45990000
I       25.15760000      34.59170000      50.31520000
I       28.30230000      31.44700000      50.31520000
I       25.15760000      31.44700000      59.74930000
I       25.15760000      34.59170000      56.60460000
I       28.30230000      31.44700000      56.60460000
I       25.15760000      31.44700000      66.03870000
I       25.15760000      34.59170000      62.89400000
I       28.30230000      31.44700000      62.89400000
I       25.15760000      31.44700000      72.32810000
I       25.15760000      34.59170000      69.18340000
I       28.30230000      31.44700000      69.18340000
I       25.15760000      37.73640000       3.14470000
I       25.15760000      40.88110000       0.00000000
I       28.30230000      37.73640000       0.00000000
I       25.15760000      37.73640000       9.43410000
I       25.15760000      40.88110000       6.28940000
I       28.30230000      37.73640000       6.28940000
I       25.15760000      37.73640000      15.72350000
I       25.15760000      40.88110000      12.57880000
I       28.30230000      37.73640000      12.57880000
I       25.15760000      37.73640000      22.01290000
I       25.15760000      40.88110000      18.86820000
I       28.30230000      37.73640000      18.86820000
I       25.15760000      37.73640000      28.30230000
I       25.15760000      40.88110000      25.15760000
I       28.30230000      37.73640000      25.15760000
I       25.15760000      37.73640000      34.59170000
I       25.15760000      40.88110000      31.44700000
I       28.30230000      37.73640000      31.44700000
I       25.15760000      37.73640000      40.88110000
I       25.15760000      40.88110000      37.73640000
I       28.30230000      37.73640000      37.73640000
I       25.15760000      37.73640000      47.17050000
I       25.15760000      40.88110000      44.02580000
I       28.30230000      37.73640000      44.02580000
I       25.15760000      37.73640000      53.45990000
I       25.15760000      40.88110000      50.31520000
I       28.30230000      37.73640000      50.31520000
I       25.15760000      37.73640000      59.74930000
I       25.15760000      40.88110000      56.60460000
I       28.30230000      37.73640000      56.60460000
I       25.15760000      37.73640000      66.03870000
I       25.15760000      40.88110000      62.89400000
I       28.30230000      37.73640000      62.89400000
I       25.15760000      37.73640000      72.32810000
I       25.15760000      40.88110000      69.18340000
I       28.30230000      37.73640000      69.18340000
I       25.15760000      44.02580000       3.14470000
I       25.15760000      47.17050000       0.00000000
I       28.30230000      44.02580000       0.00000000
I       25.15760000      44.02580000       9.43410000
I       25.15760000      47.17050000       6.28940000
I       28.30230000      44.02580000       6.28940000
I       25.15760000      44.02580000      15.72350000
I       25.15760000      47.17050000      12.57880000
I       28.30230000      44.02580000      12.57880000
I       25.15760000      44.02580000      22.01290000
I       25.15760000      47.17050000      18.86820000
I       28.30230000      44.02580000      18.86820000
I       25.15760000      44.02580000      28.30230000
I       25.15760000      47.17050000      25.15760000
I       28.30230000      44.02580000      25.15760000
I       25.15760000      44.02580000      34.59170000
I       25.15760000      47.17050000      31.44700000
I       28.30230000      44.02580000      31.44700000
I       25.15760000      44.02580000      40.88110000
I       25.15760000      47.17050000      37.73640000
I       28.30230000      44.02580000      37.73640000
I       25.15760000      44.02580000      47.17050000
I       25.15760000      47.17050000      44.02580000
I       28.30230000      44.02580000      44.02580000
I       25.15760000      44.02580000      53.45990000
I       25.15760000      47.17050000      50.31520000
I       28.30230000      44.02580000      50.31520000
I       25.15760000      44.02580000      59.74930000
I       25.15760000      47.17050000      56.60460000
I       28.30230000      44.02580000      56.60460000
I       25.15760000      44.02580000      66.03870000
I       25.15760000      47.17050000      62.89400000
I       28.30230000      44.02580000      62.89400000
I       25.15760000      44.02580000      72.32810000
I       25.15760000      47.17050000      69.18340000
I       28.30230000      44.02580000      69.18340000
I       25.15760000      50.31520000       3.14470000
I       25.15760000      53.45990000       0.00000000
I       28.30230000      50.31520000       0.00000000
I       25.15760000      50.31520000       9.43410000
I       25.15760000      53.45990000       6.28940000
I       28.30230000      50.31520000       6.28940000
I       25.15760000      50.31520000      15.72350000
I       25.15760000      53.45990000      12.57880000
I       28.30230000      50.31520000      12.57880000
I       25.15760000      50.31520000      22.01290000
I       25.15760000      53.45990000      18.86820000
I       28.30230000      50.31520000      18.86820000
I       25.15760000      50.31520000      28.30230000
I       25.15760000      53.45990000      25.15760000
I       28.30230000      50.31520000      25.15760000
I       25.15760000      50.31520000      34.59170000
I       25.15760000      53.45990000      31.44700000
I       28.30230000      50.31520000      31.44700000
I       25.15760000      50.31520000      40.88110000
I       25.15760000      53.45990000      37.73640000
I       28.30230000      50.31520000      37.73640000
I       25.15760000      50.31520000      47.17050000
I       25.15760000      53.45990000      44.02580000
I       28.30230000      50.31520000      44.02580000
I       25.15760000      50.31520000      53.45990000
I       25.15760000      53.45990000      50.31520000
I       28.30230000      50.31520000      50.31520000
I       25.15760000      50.31520000      59.74930000
I       25.15760000      53.45990000      56.60460000
I       28.30230000      50.31520000      56.60460000
I       25.15760000      50.31520000      66.03870000
I       25.15760000      53.45990000      62.89400000
I       28.30230000      50.31520000      62.89400000
I       25.15760000      50.31520000      72.32810000
I       25.15760000      53.45990000      69.18340000
I       28.30230000      50.31520000      69.18340000
I       25.15760000      56.60460000       3.14470000
I       25.15760000      59.74930000       0.00000000
I       28.30230000      56.60460000       0.00000000
I       25.15760000      56.60460000       9.43410000
I       25.15760000      59.74930000       6.28940000
I       28.30230000      56.60460000       6.28940000
I       25.15760000      56.60460000      15.72350000
I       25.15760000      59.74930000      12.57880000
I       28.30230000      56.60460000      12.57880000
I       25.15760000      56.60460000      22.01290000
I       25.15760000      59.74930000      18.86820000
I       28.30230000      56.60460000      18.86820000
I       25.15760000      56.60460000      28.30230000
I       25.15760000      59.74930000      25.15760000
I       28.30230000      56.60460000      25.15760000
I       25.15760000      56.60460000      34.59170000
I       25.15760000      59.74930000      31.44700000
I       28.30230000      56.60460000      31.44700000
I       25.15760000      56.60460000      40.88110000
I       25.15760000      59.74930000      37.73640000
I       28.30230000      56.60460000      37.73640000
I       25.15760000      56.60460000      47.17050000
I       25.15760000      59.74930000      44.02580000
I       28.30230000      56.60460000      44.02580000
I       25.15760000      56.60460000      53.45990000
I       25.15760000      59.74930000      50.31520000
I       28.30230000      56.60460000      50.31520000
I       25.15760000      56.60460000      59.74930000
I       25.15760000      59.74930000      56.60460000
I       28.30230000      56.60460000      56.60460000
I       25.15760000      56.60460000      66.03870000
I       25.15760000      59.74930000      62.89400000
I       28.30230000      56.60460000      62.89400000
I       25.15760000      56.60460000      72.32810000
I       25.15760000      59.74930000      69.18340000
I       28.30230000      56.60460000      69.18340000
I       25.15760000      62.89400000       3.14470000
I       25.15760000      66.03870000       0.00000000
I       28.30230000      62.89400000       0.00000000
I       25.15760000      62.89400000       9.43410000
I       25.15760000      66.03870000       6.28940000
I       28.30230000      62.89400000       6.28940000
I       25.15760000      62.89400000      15.72350000
I       25.15760000      66.03870000      12.57880000
I       28.30230000      62.89400000      12.57880000
I       25.15760000      62.89400000      22.01290000
I       25.15760000      66.03870000      18.86820000
I       28.30230000      62.89400000      18.86820000
I       25.15760000      62.89400000      28.30230000
I       25.15760000      66.03870000      25.15760000
I       28.30230000      62.89400000      25.15760000
I       25.15760000      62.89400000      34.59170000
I       25.15760000      66.03870000      31.44700000
I       28.30230000      62.89400000      31.44700000
I       25.15760000      62.89400000      40.88110000
I       25.15760000      66.03870000      37.73640000
I       28.30230000      62.89400000      37.73640000
I       25.15760000      62.89400000      47.17050000
I       25.15760000      66.03870000      44.02580000
I       28.30230000      62.89400000      44.02580000
I       25.15760000      62.89400000      53.45990000
I       25.15760000      66.03870000      50.31520000
I       28.30230000      62.89400000      50.31520000
I       25.15760000      62.89400000      59.74930000
I       25.15760000      66.03870000      56.60460000
I       28.30230000      62.89400000      56.60460000
I       25.15760000      62.89400000      66.03870000
I       25.15760000      66.03870000      62.89400000
I       28.30230000      62.89400000      62.89400000
I       25.15760000      62.89400000      72.32810000
I       25.15760000      66.03870000      69.18340000
I       28.30230000      62.89400000      69.18340000
I       25.15760000      69.18340000       3.14470000
I       25.15760000      72.32810000       0.00000000
I       28.30230000      69.18340000       0.00000000
I       25.15760000      69.18340000       9.43410000
I       25.15760000      72.32810000       6.28940000
I       28.30230000      69.18340000       6.28940000
I       25.15760000      69.18340000      15.72350000
I       25.15760000      72.32810000      12.57880000
I       28.30230000      69.18340000      12.57880000
I       25.15760000      69.18340000      22.01290000
I       25.15760000      72.32810000      18.86820000
I       28.30230000      69.18340000      18.86820000
I       25.15760000      69.18340000      28.30230000
I       25.15760000      72.32810000      25.15760000
I       28.30230000      69.18340000      25.15760000
I       25.15760000      69.18340000      34.59170000
I       25.15760000      72.32810000      31.44700000
I       28.30230000      69.18340000      31.44700000
I       25.15760000      69.18340000      40.88110000
I       25.15760000      72.32810000      37.73640000
I       28.30230000      69.18340000      37.73640000
I       25.15760000      69.18340000      47.17050000
I       25.15760000      72.32810000      44.02580000
I       28.30230000      69.18340000      44.02580000
I       25.15760000      69.18340000      53.45990000
I       25.15760000      72.32810000      50.31520000
I       28.30230000      69.18340000      50.31520000
I       25.15760000      69.18340000      59.74930000
I       25.15760000      72.32810000      56.60460000
I       28.30230000      69.18340000      56.60460000
I       25.15760000      69.18340000      66.03870000
I       25.15760000      72.32810000      62.89400000
I       28.30230000      69.18340000      62.89400000
I       25.15760000      69.18340000      72.32810000
I       25.15760000      72.32810000      69.18340000
I       28.30230000      69.18340000      69.18340000
I       31.44700000       0.00000000       3.14470000
I       31.44700000       3.14470000       0.00000000
I       34.59170000       0.00000000       0.00000000
I       31.44700000       0.00000000       9.43410000
I       31.44700000       3.14470000       6.28940000
I       34.59170000       0.00000000       6.28940000
I       31.44700000       0.00000000      15.72350000
I       31.44700000       3.14470000      12.57880000
I       34.59170000       0.00000000      12.57880000
I       31.44700000       0.00000000      22.01290000
I       31.44700000       3.14470000      18.86820000
I       34.59170000       0.00000000      18.86820000
I       31.44700000       0.00000000      28.30230000
I       31.44700000       3.14470000      25.15760000
I       34.59170000       0.00000000      25.15760000
I       31.44700000       0.00000000      34.59170000
I       31.44700000       3.14470000      31.44700000
I       34.59170000       0.00000000      31.44700000
I       31.44700000       0.00000000      40.88110000
I       31.44700000       3.14470000      37.73640000
I       34.59170000       0.00000000      37.73640000
I       31.44700000       0.00000000      47.17050000
I       31.44700000       3.14470000      44.02580000
I       34.59170000       0.00000000      44.02580000
I       31.44700000       0.00000000      53.45990000
I       31.44700000       3.14470000      50.31520000
I       34.59170000       0.00000000      50.31520000
I       31.44700000       0.00000000      59.74930000
I       31.44700000       3.14470000      56.60460000
I       34.59170000       0.00000000      56.60460000
I       31.44700000       0.00000000      66.03870000
I       31.44700000       3.14470000      62.89400000
I       34.59170000       0.00000000      62.89400000
I       31.44700000       0.00000000      72.32810000
I       31.44700000       3.14470000      69.18340000
I       34.59170000       0.00000000      69.18340000
I       31.44700000       6.28940000       3.14470000
I       31.44700000       9.43410000       0.00000000
I       34.59170000       6.28940000       0.00000000
I       31.44700000       6.28940000       9.43410000
I       31.44700000       9.43410000       6.28940000
I       34.59170000       6.28940000       6.28940000
I       31.44700000       6.28940000      15.72350000
I       31.44700000       9.43410000      12.57880000
I       34.59170000       6.28940000      12.57880000
I       31.44700000       6.28940000      22.01290000
I       31.44700000       9.43410000      18.86820000
I       34.59170000       6.28940000      18.86820000
I       31.44700000       6.28940000      28.30230000
I       31.44700000       9.43410000      25.15760000
I       34.59170000       6.28940000      25.15760000
I       31.44700000       6.28940000      34.59170000
I       31.44700000       9.43410000      31.44700000
I       34.59170000       6.28940000      31.44700000
I       31.44700000       6.28940000      40.88110000
I       31.44700000       9.43410000      37.73640000
I       34.59170000       6.28940000      37.73640000
I       31.44700000       6.28940000      47.17050000
I       31.44700000       9.43410000      44.02580000
I       34.59170000       6.28940000      44.02580000
I       31.44700000       6.28940000      53.45990000
I       31.44700000       9.43410000      50.31520000
I       34.59170000       6.28940000      50.31520000
I       31.44700000       6.28940000      59.74930000
I       31.44700000       9.43410000      56.60460000
I       34.59170000       6.28940000      56.60460000
I       31.44700000       6.28940000      66.03870000
I       31.44700000       9.43410000      62.89400000
I       34.59170000       6.28940000      62.89400000
I       31.44700000       6.28940000      72.32810000
I       31.44700000       9.43410000      69.18340000
I       34.59170000       6.28940000      69.18340000
I       31.44700000      12.57880000       3.14470000
I       31.44700000      15.72350000       0.00000000
I       34.59170000      12.57880000       0.00000000
I       31.44700000      12.57880000       9.43410000
I       31.44700000      15.72350000       6.28940000
I       34.59170000      12.57880000       6.28940000
I       31.44700000      12.57880000      15.72350000
I       31.44700000      15.72350000      12.57880000
I       34.59170000      12.57880000      12.57880000
I       31.44700000      12.57880000      22.01290000
I       31.44700000      15.72350000      18.86820000
I       34.59170000      12.57880000      18.86820000
I       31.44700000      12.57880000      28.30230000
I       31.44700000      15.72350000      25.15760000
I       34.59170000      12.57880000      25.15760000
I       31.44700000      12.57880000      34.59170000
I       31.44700000      15.72350000      31.44700000
I       34.59170000      12.57880000      31.44700000
I       31.44700000      12.57880000      40.88110000
I       31.44700000      15.72350000      37.73640000
I       34.59170000      12.57880000      37.73640000
I       31.44700000      12.57880000      47.17050000
I       31.44700000      15.72350000      44.02580000
I       34.59170000      12.57880000      44.02580000
I       31.44700000      12.57880000      53.45990000
I       31.44700000      15.72350000      50.31520000
I       34.59170000      12.57880000      50.31520000
I       31.44700000      12.57880000      59.74930000
I       31.44700000      15.72350000      56.60460000
I       34.59170000      12.57880000      56.60460000
I       31.44700000      12.57880000      66.03870000
I       31.44700000      15.72350000      62.89400000
I       34.59170000      12.57880000      62.89400000
I       31.44700000      12.57880000      72.32810000
I       31.44700000      15.72350000      69.18340000
I       34.59170000      12.57880000      69.18340000
I       31.44700000      18.86820000       3.14470000
I       31.44700000      22.01290000       0.00000000
I       34.59170000      18.86820000       0.00000000
I       31.44700000      18.86820000       9.43410000
I       31.44700000      22.01290000       6.28940000
I       34.59170000      18.86820000       6.28940000
I       31.44700000      18.86820000      15.72350000
I       31.44700000      22.01290000      12.57880000
I       34.59170000      18.86820000      12.57880000
I       31.44700000      18.86820000      22.01290000
I       31.44700000      22.01290000      18.86820000
I       34.59170000      18.86820000      18.86820000
I       31.44700000      18.86820000      28.30230000
I       31.44700000      22.01290000      25.15760000
I       34.59170000      18.86820000      25.15760000
I       31.44700000      18.86820000      34.59170000
I       31.44700000      22.01290000      31.44700000
I       34.59170000      18.86820000      31.44700000
I       31.44700000      18.86820000      40.88110000
I       31.44700000      22.01290000      37.73640000
I       34.59170000      18.86820000      37.73640000
I       31.44700000      18.86820000      47.17050000
I       31.44700000      22.01290000      44.02580000
I       34.59170000      18.86820000      44.02580000
I       31.44700000      18.86820000      53.45990000
I       31.44700000      22.01290000      50.31520000
I       34.59170000      18.86820000      50.31520000
I       31.44700000      18.86820000      59.74930000
I       31.44700000      22.01290000      56.60460000
I       34.59170000      18.86820000      56.60460000
I       31.44700000      18.86820000      66.03870000
I       31.44700000      22.01290000      62.89400000
I       34.59170000      18.86820000      62.89400000
I       31.44700000      18.86820000      72.32810000
I       31.44700000      22.01290000      69.18340000
I       34.59170000      18.86820000      69.18340000
I       31.44700000      25.15760000       3.14470000
I       31.44700000      28.30230000       0.00000000
I       34.59170000      25.15760000       0.00000000
I       31.44700000      25.15760000       9.43410000
I       31.44700000      28.30230000       6.28940000
I       34.59170000      25.15760000       6.28940000
I       31.44700000      25.15760000      15.72350000
I       31.44700000      28.30230000      12.57880000
I       34.59170000      25.15760000      12.57880000
I       31.44700000      25.15760000      22.01290000
I       31.44700000      28.30230000      18.86820000
I       34.59170000      25.15760000      18.86820000
I       31.44700000      25.15760000      28.30230000
I       31.44700000      28.30230000      25.15760000
I       34.59170000      25.15760000      25.15760000
I       31.44700000      25.15760000      34.59170000
I       31.44700000      28.30230000      31.44700000
I       34.59170000      25.15760000      31.44700000
I       31.44700000      25.15760000      40.88110000
I       31.44700000      28.30230000      37.73640000
I       34.59170000      25.15760000      37.73640000
I       31.44700000      25.15760000      47.17050000
I       31.44700000      28.30230000      44.02580000
I       34.59170000      25.15760000      44.02580000
I       31.44700000      25.15760000      53.45990000
I       31.44700000      28.30230000      50.31520000
I       34.59170000      25.15760000      50.31520000
I       31.44700000      25.15760000      59.74930000
I       31.44700000      28.30230000      56.60460000
I       34.59170000      25.15760000      56.60460000
I       31.44700000      25.15760000      66.03870000
I       31.44700000      28.30230000      62.89400000
I       34.59170000      25.15760000      62.89400000
I       31.44700000      25.15760000      72.32810000
I       31.44700000      28.30230000      69.18340000
I       34.59170000      25.15760000      69.18340000
I       31.44700000      31.44700000       3.14470000
I       31.44700000      34.59170000       0.00000000
I       34.59170000      31.44700000       0.00000000
I       31.44700000      31.44700000       9.43410000
I       31.44700000      34.59170000       6.28940000
I       34.59170000      31.44700000       6.28940000
I       31.44700000      31.44700000      15.72350000
I       31.44700000      34.59170000      12.57880000
I       34.59170000      31.44700000      12.57880000
I       31.44700000      31.44700000      22.01290000
I       31.44700000      34.59170000      18.86820000
I       34.59170000      31.44700000      18.86820000
I       31.44700000      31.44700000      28.30230000
I       31.44700000      34.59170000      25.15760000
I       34.59170000      31.44700000      25.15760000
I       31.44700000      31.44700000      34.59170000
I       31.44700000      34.59170000      31.44700000
I       34.59170000      31.44700000      31.44700000
I       31.44700000      31.44700000      40.88110000
I       31.44700000      34.59170000      37.73640000
I       34.59170000      31.44700000      37.73640000
I       31.44700000      31.44700000      47.17050000
I       31.44700000      34.59170000      44.02580000
I       34.59170000      31.44700000      44.02580000
I       31.44700000      31.44700000      53.45990000
I       31.44700000      34.59170000      50.31520000
I       34.59170000      31.44700000      50.31520000
I       31.44700000      31.44700000      59.74930000
I       31.44700000      34.59170000      56.60460000
I       34.59170000      31.44700000      56.60460000
I       31.44700000      31.44700000      66.03870000
I       31.44700000      34.59170000      62.89400000
I       34.59170000      31.44700000      62.89400000
I       31.44700000      31.44700000      72.32810000
I       31.44700000      34.59170000      69.18340000
I       34.59170000      31.44700000      69.18340000
I       31.44700000      37.73640000       3.14470000
I       31.44700000      40.88110000       0.00000000
I       34.59170000      37.73640000       0.00000000
I       31.44700000      37.73640000       9.43410000
I       31.44700000      40.88110000       6.28940000
I       34.59170000      37.73640000       6.28940000
I       31.44700000      37.73640000      15.72350000
I       31.44700000      40.88110000      12.57880000
I       34.59170000      37.73640000      12.57880000
I       31.44700000      37.73640000      22.01290000
I       31.44700000      40.88110000      18.86820000
I       34.59170000      37.73640000      18.86820000
I       31.44700000      37.73640000      28.30230000
I       31.44700000      40.88110000      25.15760000
I       34.59170000      37.73640000      25.15760000
I       31.44700000      37.73640000      34.59170000
I       31.44700000      40.88110000      31.44700000
I       34.59170000      37.73640000      31.44700000
I       31.44700000      37.73640000      40.88110000
I       31.44700000      40.88110000      37.73640000
I       34.59170000      37.73640000      37.73640000
I       31.44700000      37.73640000      47.17050000
I       31.44700000      40.88110000      44.02580000
I       34.59170000      37.73640000      44.02580000
I       31.44700000      37.73640000      53.45990000
I       31.44700000      40.88110000      50.31520000
I       34.59170000      37.73640000      50.31520000
I       31.44700000      37.73640000      59.74930000
I       31.44700000      40.88110000      56.60460000
I       34.59170000      37.73640000      56.60460000
I       31.44700000      37.73640000      66.03870000
I       31.44700000      40.88110000      62.89400000
I       34.59170000      37.73640000      62.89400000
I       31.44700000      37.73640000      72.32810000
I       31.44700000      40.88110000      69.18340000
I       34.59170000      37.73640000      69.18340000
I       31.44700000      44.02580000       3.14470000
I       31.44700000      47.17050000       0.00000000
I       34.59170000      44.02580000       0.00000000
I       31.44700000      44.02580000       9.43410000
I       31.44700000      47.17050000       6.28940000
I       34.59170000      44.02580000       6.28940000
I       31.44700000      44.02580000      15.72350000
I       31.44700000      47.17050000      12.57880000
I       34.59170000      44.02580000      12.57880000
I       31.44700000      44.02580000      22.01290000
I       31.44700000      47.17050000      18.86820000
I       34.59170000      44.02580000      18.86820000
I       31.44700000      44.02580000      28.30230000
I       31.44700000      47.17050000      25.15760000
I       34.59170000      44.02580000      25.15760000
I       31.44700000      44.02580000      34.59170000
I       31.44700000      47.17050000      31.44700000
I       34.59170000      44.02580000      31.44700000
I       31.44700000      44.02580000      40.88110000
I       31.44700000      47.17050000      37.73640000
I       34.59170000      44.02580000      37.73640000
I       31.44700000      44.02580000      47.17050000
I       31.44700000      47.17050000      44.02580000
I       34.59170000      44.02580000      44.02580000
I       31.44700000      44.02580000      53.45990000
I       31.44700000      47.17050000      50.31520000
I       34.59170000      44.02580000      50.31520000
I       31.44700000      44.02580000      59.74930000
I       31.44700000      47.17050000      56.60460000
I       34.59170000      44.02580000      56.60460000
I       31.44700000      44.02580000      66.03870000
I       31.44700000      47.17050000      62.89400000
I       34.59170000      44.02580000      62.89400000
I       31.44700000      44.02580000      72.32810000
I       31.44700000      47.17050000      69.18340000
I       34.59170000      44.02580000      69.18340000
I       31.44700000      50.31520000       3.14470000
I       31.44700000      53.45990000       0.00000000
I       34.59170000      50.31520000       0.00000000
I       31.44700000      50.31520000       9.43410000
I       31.44700000      53.45990000       6.28940000
I       34.59170000      50.31520000       6.28940000
I       31.44700000      50.31520000      15.72350000
I       31.44700000      53.45990000      12.57880000
I       34.59170000      50.31520000      12.57880000
I       31.44700000      50.31520000      22.01290000
I       31.44700000      53.45990000      18.86820000
I       34.59170000      50.31520000      18.86820000
I       31.44700000      50.31520000      28.30230000
I       31.44700000      53.45990000      25.15760000
I       34.59170000      50.31520000      25.15760000
I       31.44700000      50.31520000      34.59170000
I       31.44700000      53.45990000      31.44700000
I       34.59170000      50.31520000      31.44700000
I       31.44700000      50.31520000      40.88110000
I       31.44700000      53.45990000      37.73640000
I       34.59170000      50.31520000      37.73640000
I       31.44700000      50.31520000      47.17050000
I       31.44700000      53.45990000      44.02580000
I       34.59170000      50.31520000      44.02580000
I       31.44700000      50.31520000      53.45990000
I       31.44700000      53.45990000      50.31520000
I       34.59170000      50.31520000      50.31520000
I       31.44700000      50.31520000      59.74930000
I       31.44700000      53.45990000      56.60460000
I       34.59170000      50.31520000      56.60460000
I       31.44700000      50.31520000      66.03870000
I       31.44700000      53.45990000      62.89400000
I       34.59170000      50.31520000      62.89400000
I       31.44700000      50.31520000      72.32810000
I       31.44700000      53.45990000      69.18340000
I       34.59170000      50.31520000      69.18340000
I       31.44700000      56.60460000       3.14470000
I       31.44700000      59.74930000       0.00000000
I       34.59170000      56.60460000       0.00000000
I       31.44700000      56.60460000       9.43410000
I       31.44700000      59.74930000       6.28940000
I       34.59170000      56.60460000       6.28940000
I       31.44700000      56.60460000      15.72350000
I       31.44700000      59.74930000      12.57880000
I       34.59170000      56.60460000      12.57880000
I       31.44700000      56.60460000      22.01290000
I       31.44700000      59.74930000      18.86820000
I       34.59170000      56.60460000      18.86820000
I       31.44700000      56.60460000      28.30230000
I       31.44700000      59.74930000      25.15760000
I       34.59170000      56.60460000      25.15760000
I       31.44700000      56.60460000      34.59170000
I       31.44700000      59.74930000      31.44700000
I       34.59170000      56.60460000      31.44700000
I       31.44700000      56.60460000      40.88110000
I       31.44700000      59.74930000      37.73640000
I       34.59170000      56.60460000      37.73640000
I       31.44700000      56.60460000      47.17050000
I       31.44700000      59.74930000      44.02580000
I       34.59170000      56.60460000      44.02580000
I       31.44700000      56.60460000      53.45990000
I       31.44700000      59.74930000      50.31520000
I       34.59170000      56.60460000      50.31520000
I       31.44700000      56.60460000      59.74930000
I       31.44700000      59.74930000      56.60460000
I       34.59170000      56.60460000      56.60460000
I       31.44700000      56.60460000      66.03870000
I       31.44700000      59.74930000      62.89400000
I       34.59170000      56.60460000      62.89400000
I       31.44700000      56.60460000      72.32810000
I       31.44700000      59.74930000      69.18340000
I       34.59170000      56.60460000      69.18340000
I       31.44700000      62.89400000       3.14470000
I       31.44700000      66.03870000       0.00000000
I       34.59170000      62.89400000       0.00000000
I       31.44700000      62.89400000       9.43410000
I       31.44700000      66.03870000       6.28940000
I       34.59170000      62.89400000       6.28940000
I       31.44700000      62.89400000      15.72350000
I       31.44700000      66.03870000      12.57880000
I       34.59170000      62.89400000      12.57880000
I       31.44700000      62.89400000      22.01290000
I       31.44700000      66.03870000      18.86820000
I       34.59170000      62.89400000      18.86820000
I       31.44700000      62.89400000      28.30230000
I       31.44700000      66.03870000      25.15760000
I       34.59170000      62.89400000      25.15760000
I       31.44700000      62.89400000      34.59170000
I       31.44700000      66.03870000      31.44700000
I       34.59170000      62.89400000      31.44700000
I       31.44700000      62.89400000      40.88110000
I       31.44700000      66.03870000      37.73640000
I       34.59170000      62.89400000      37.73640000
I       31.44700000      62.89400000      47.17050000
I       31.44700000      66.03870000      44.02580000
I       34.59170000      62.89400000      44.02580000
I       31.44700000      62.89400000      53.45990000
I       31.44700000      66.03870000      50.31520000
I       34.59170000      62.89400000      50.31520000
I       31.44700000      62.89400000      59.74930000
I       31.44700000      66.03870000      56.60460000
I       34.59170000      62.89400000      56.60460000
I       31.44700000      62.89400000      66.03870000
I       31.44700000      66.03870000      62.89400000
I       34.59170000      62.89400000      62.89400000
I       31.44700000      62.89400000      72.32810000
I       31.44700000      66.03870000      69.18340000
I       34.59170000      62.89400000      69.18340000
I       31.44700000      69.18340000       3.14470000
I       31.44700000      72.32810000       0.00000000
I       34.59170000      69.18340000       0.00000000
I       31.44700000      69.18340000       9.43410000
I       31.44700000      72.32810000       6.28940000
I       34.59170000      69.18340000       6.28940000
I       31.44700000      69.18340000      15.72350000
I       31.44700000      72.32810000      12.57880000
I       34.59170000      69.18340000      12.57880000
I       31.44700000      69.18340000      22.01290000
I       31.44700000      72.32810000      18.86820000
I       34.59170000      69.18340000      18.86820000
I       31.44700000      69.18340000      28.30230000
I       31.44700000      72.32810000      25.15760000
I       34.59170000      69.18340000      25.15760000
I       31.44700000      69.18340000      34.59170000
I       31.44700000      72.32810000      31.44700000
I       34.59170000      69.18340000      31.44700000
I       31.44700000      69.18340000      40.88110000
I       31.44700000      72.32810000      37.73640000
I       34.59170000      69.18340000      37.73640000
I       31.44700000      69.18340000      47.17050000
I       31.44700000      72.32810000      44.02580000
I       34.59170000      69.18340000      44.02580000
I       31.44700000      69.18340000      53.45990000
I       31.44700000      72.32810000      50.31520000
I       34.59170000      69.18340000      50.31520000
I       31.44700000      69.18340000      59.74930000
I       31.44700000      72.32810000      56.60460000
I       34.59170000      69.18340000      56.60460000
I       31.44700000      69.18340000      66.03870000
I       31.44700000      72.32810000      62.89400000
I       34.59170000      69.18340000      62.89400000
I       31.44700000      69.18340000      72.32810000
I       31.44700000      72.32810000      69.18340000
I       34.59170000      69.18340000      69.18340000
I       37.73640000       0.00000000       3.14470000
I       37.73640000       3.14470000       0.00000000
I       40.88110000       0.00000000       0.00000000
I       37.73640000       0.00000000       9.43410000
I       37.73640000       3.14470000       6.28940000
I       40.88110000       0.00000000       6.28940000
I       37.73640000       0.00000000      15.72350000
I       37.73640000       3.14470000      12.57880000
I       40.88110000       0.00000000      12.57880000
I       37.73640000       0.00000000      22.01290000
I       37.73640000       3.14470000      18.86820000
I       40.88110000       0.00000000      18.86820000
I       37.73640000       0.00000000      28.30230000
I       37.73640000       3.14470000      25.15760000
I       40.88110000       0.00000000      25.15760000
I       37.73640000       0.00000000      34.59170000
I       37.73640000       3.14470000      31.44700000
I       40.88110000       0.00000000      31.44700000
I       37.73640000       0.00000000      40.88110000
I       37.73640000       3.14470000      37.73640000
I       40.88110000       0.00000000      37.73640000
I       37.73640000       0.00000000      47.17050000
I       37.73640000       3.14470000      44.02580000
I       40.88110000       0.00000000      44.02580000
I       37.73640000       0.00000000      53.45990000
I       37.73640000       3.14470000      50.31520000
I       40.88110000       0.00000000      50.31520000
I       37.73640000       0.00000000      59.74930000
I       37.73640000       3.14470000      56.60460000
I       40.88110000       0.00000000      56.60460000
I       37.73640000       0.00000000      66.03870000
I       37.73640000       3.14470000      62.89400000
I       40.88110000       0.00000000      62.89400000
I       37.73640000       0.00000000      72.32810000
I       37.73640000       3.14470000      69.18340000
I       40.88110000       0.00000000      69.18340000
I       37.73640000       6.28940000       3.14470000
I       37.73640000       9.43410000       0.00000000
I       40.88110000       6.28940000       0.00000000
I       37.73640000       6.28940000       9.43410000
I       37.73640000       9.43410000       6.28940000
I       40.88110000       6.28940000       6.28940000
I       37.73640000       6.28940000      15.72350000
I       37.73640000       9.43410000      12.57880000
I       40.88110000       6.28940000      12.57880000
I       37.73640000       6.28940000      22.01290000
I       37.73640000       9.43410000      18.86820000
I       40.88110000       6.28940000      18.86820000
I       37.73640000       6.28940000      28.30230000
I       37.73640000       9.43410000      25.15760000
I       40.88110000       6.28940000      25.15760000
I       37.73640000       6.28940000      34.59170000
I       37.73640000       9.43410000      31.44700000
I       40.88110000       6.28940000      31.44700000
I       37.73640000       6.28940000      40.88110000
I       37.73640000       9.43410000      37.73640000
I       40.88110000       6.28940000      37.73640000
I       37.73640000       6.28940000      47.17050000
I       37.73640000       9.43410000      44.02580000
I       40.88110000       6.28940000      44.02580000
I       37.73640000       6.28940000      53.45990000
I       37.73640000       9.43410000      50.31520000
I       40.88110000       6.28940000      50.31520000
I       37.73640000       6.28940000      59.74930000
I       37.73640000       9.43410000      56.60460000
I       40.88110000       6.28940000      56.60460000
I       37.73640000       6.28940000      66.03870000
I       37.73640000       9.43410000      62.89400000
I       40.88110000       6.28940000      62.89400000
I       37.73640000       6.28940000      72.32810000
I       37.73640000       9.43410000      69.18340000
I       40.88110000       6.28940000      69.18340000
I       37.73640000      12.57880000       3.14470000
I       37.73640000      15.72350000       0.00000000
I       40.88110000      12.57880000       0.00000000
I       37.73640000      12.57880000       9.43410000
I       37.73640000      15.72350000       6.28940000
I       40.88110000      12.57880000       6.28940000
I       37.73640000      12.57880000      15.72350000
I       37.73640000      15.72350000      12.57880000
I       40.88110000      12.57880000      12.57880000
I       37.73640000      12.57880000      22.01290000
I       37.73640000      15.72350000      18.86820000
I       40.88110000      12.57880000      18.86820000
I       37.73640000      12.57880000      28.30230000
I       37.73640000      15.72350000      25.15760000
I       40.88110000      12.57880000      25.15760000
I       37.73640000      12.57880000      34.59170000
I       37.73640000      15.72350000      31.44700000
I       40.88110000      12.57880000      31.44700000
I       37.73640000      12.57880000      40.88110000
I       37.73640000      15.72350000      37.73640000
I       40.88110000      12.57880000      37.73640000
I       37.73640000      12.57880000      47.17050000
I       37.73640000      15.72350000      44.02580000
I       40.88110000      12.57880000      44.02580000
I       37.73640000      12.57880000      53.45990000
I       37.73640000      15.72350000      50.31520000
I       40.88110000      12.57880000      50.31520000
I       37.73640000      12.57880000      59.74930000
I       37.73640000      15.72350000      56.60460000
I       40.88110000      12.57880000      56.60460000
I       37.73640000      12.57880000      66.03870000
I       37.73640000      15.72350000      62.89400000
I       40.88110000      12.57880000      62.89400000
I       37.73640000      12.57880000      72.32810000
I       37.73640000      15.72350000      69.18340000
I       40.88110000      12.57880000      69.18340000
I       37.73640000      18.86820000       3.14470000
I       37.73640000      22.01290000       0.00000000
I       40.88110000      18.86820000       0.00000000
I       37.73640000      18.86820000       9.43410000
I       37.73640000      22.01290000       6.28940000
I       40.88110000      18.86820000       6.28940000
I       37.73640000      18.86820000      15.72350000
I       37.73640000      22.01290000      12.57880000
I       40.88110000      18.86820000      12.57880000
I       37.73640000      18.86820000      22.01290000
I       37.73640000      22.01290000      18.86820000
I       40.88110000      18.86820000      18.86820000
I       37.73640000      18.86820000      28.30230000
I       37.73640000      22.01290000      25.15760000
I       40.88110000      18.86820000      25.15760000
I       37.73640000      18.86820000      34.59170000
I       37.73640000      22.01290000      31.44700000
I       40.88110000      18.86820000      31.44700000
I       37.73640000      18.86820000      40.88110000
I       37.73640000      22.01290000      37.73640000
I       40.88110000      18.86820000      37.73640000
I       37.73640000      18.86820000      47.17050000
I       37.73640000      22.01290000      44.02580000
I       40.88110000      18.86820000      44.02580000
I       37.73640000      18.86820000      53.45990000
I       37.73640000      22.01290000      50.31520000
I       40.88110000      18.86820000      50.31520000
I       37.73640000      18.86820000      59.74930000
I       37.73640000      22.01290000      56.60460000
I       40.88110000      18.86820000      56.60460000
I       37.73640000      18.86820000      66.03870000
I       37.73640000      22.01290000      62.89400000
I       40.88110000      18.86820000      62.89400000
I       37.73640000      18.86820000      72.32810000
I       37.73640000      22.01290000      69.18340000
I       40.88110000      18.86820000      69.18340000
I       37.73640000      25.15760000       3.14470000
I       37.73640000      28.30230000       0.00000000
I       40.88110000      25.15760000       0.00000000
I       37.73640000      25.15760000       9.43410000
I       37.73640000      28.30230000       6.28940000
I       40.88110000      25.15760000       6.28940000
I       37.73640000      25.15760000      15.72350000
I       37.73640000      28.30230000      12.57880000
I       40.88110000      25.15760000      12.57880000
I       37.73640000      25.15760000      22.01290000
I       37.73640000      28.30230000      18.86820000
I       40.88110000      25.15760000      18.86820000
I       37.73640000      25.15760000      28.30230000
I       37.73640000      28.30230000      25.15760000
I       40.88110000      25.15760000      25.15760000
I       37.73640000      25.15760000      34.59170000
I       37.73640000      28.30230000      31.44700000
I       40.88110000      25.15760000      31.44700000
I       37.73640000      25.15760000      40.88110000
I       37.73640000      28.30230000      37.73640000
I       40.88110000      25.15760000      37.73640000
I       37.73640000      25.15760000      47.17050000
I       37.73640000      28.30230000      44.02580000
I       40.88110000      25.15760000      44.02580000
I       37.73640000      25.15760000      53.45990000
I       37.73640000      28.30230000      50.31520000
I       40.88110000      25.15760000      50.31520000
I       37.73640000      25.15760000      59.74930000
I       37.73640000      28.30230000      56.60460000
I       40.88110000      25.15760000      56.60460000
I       37.73640000      25.15760000      66.03870000
I       37.73640000      28.30230000      62.89400000
I       40.88110000      25.15760000      62.89400000
I       37.73640000      25.15760000      72.32810000
I       37.73640000      28.30230000      69.18340000
I       40.88110000      25.15760000      69.18340000
I       37.73640000      31.44700000       3.14470000
I       37.73640000      34.59170000       0.00000000
I       40.88110000      31.44700000       0.00000000
I       37.73640000      31.44700000       9.43410000
I       37.73640000      34.59170000       6.28940000
I       40.88110000      31.44700000       6.28940000
I       37.73640000      31.44700000      15.72350000
I       37.73640000      34.59170000      12.57880000
I       40.88110000      31.44700000      12.57880000
I       37.73640000      31.44700000      22.01290000
I       37.73640000      34.59170000      18.86820000
I       40.88110000      31.44700000      18.86820000
I       37.73640000      31.44700000      28.30230000
I       37.73640000      34.59170000      25.15760000
I       40.88110000      31.44700000      25.15760000
I       37.73640000      31.44700000      34.59170000
I       37.73640000      34.59170000      31.44700000
I       40.88110000      31.44700000      31.44700000
I       37.73640000      31.44700000      40.88110000
I       37.73640000      34.59170000      37.73640000
I       40.88110000      31.44700000      37.73640000
I       37.73640000      31.44700000      47.17050000
I       37.73640000      34.59170000      44.02580000
I       40.88110000      31.44700000      44.02580000
I       37.73640000      31.44700000      53.45990000
I       37.73640000      34.59170000      50.31520000
I       40.88110000      31.44700000      50.31520000
I       37.73640000      31.44700000      59.74930000
I       37.73640000      34.59170000      56.60460000
I       40.88110000      31.44700000      56.60460000
I       37.73640000      31.44700000      66.03870000
I       37.73640000      34.59170000      62.89400000
I       40.88110000      31.44700000      62.89400000
I       37.73640000      31.44700000      72.32810000
I       37.73640000      34.59170000      69.18340000
I       40.88110000      31.44700000      69.18340000
I       37.73640000      37.73640000       3.14470000
I       37.73640000      40.88110000       0.00000000
I       40.88110000      37.73640000       0.00000000
I       37.73640000      37.73640000       9.43410000
I       37.73640000      40.88110000       6.28940000
I       40.88110000      37.73640000       6.28940000
I       37.73640000      37.73640000      15.72350000
I       37.73640000      40.88110000      12.57880000
I       40.88110000      37.73640000      12.57880000
I       37.73640000      37.73640000      22.01290000
I       37.73640000      40.88110000      18.86820000
I       40.88110000      37.73640000      18.86820000
I       37.73640000      37.73640000      28.30230000
I       37.73640000      40.88110000      25.15760000
I       40.88110000      37.73640000      25.15760000
I       37.73640000      37.73640000      34.59170000
I       37.73640000      40.88110000      31.44700000
I       40.88110000      37.73640000      31.44700000
I       37.73640000      37.73640000      40.88110000
I       37.73640000      40.88110000      37.73640000
I       40.88110000      37.73640000      37.73640000
I       37.73640000      37.73640000      47.17050000
I       37.73640000      40.88110000      44.02580000
I       40.88110000      37.73640000      44.02580000
I       37.73640000      37.73640000      53.45990000
I       37.73640000      40.88110000      50.31520000
I       40.88110000      37.73640000      50.31520000
I       37.73640000      37.73640000      59.74930000
I       37.73640000      40.88110000      56.60460000
I       40.88110000      37.73640000      56.60460000
I       37.73640000      37.73640000      66.03870000
I       37.73640000      40.88110000      62.89400000
I       40.88110000      37.73640000      62.89400000
I       37.73640000      37.73640000      72.32810000
I       37.73640000      40.88110000      69.18340000
I       40.88110000      37.73640000      69.18340000
I       37.73640000      44.02580000       3.14470000
I       37.73640000      47.17050000       0.00000000
I       40.88110000      44.02580000       0.00000000
I       37.73640000      44.02580000       9.43410000
I       37.73640000      47.17050000       6.28940000
I       40.88110000      44.02580000       6.28940000
I       37.73640000      44.02580000      15.72350000
I       37.73640000      47.17050000      12.57880000
I       40.88110000      44.02580000      12.57880000
I       37.73640000      44.02580000      22.01290000
I       37.73640000      47.17050000      18.86820000
I       40.88110000      44.02580000      18.86820000
I       37.73640000      44.02580000      28.30230000
I       37.73640000      47.17050000      25.15760000
I       40.88110000      44.02580000      25.15760000
I       37.73640000      44.02580000      34.59170000
I       37.73640000      47.17050000      31.44700000
I       40.88110000      44.02580000      31.44700000
I       37.73640000      44.02580000      40.88110000
I       37.73640000      47.17050000      37.73640000
I       40.88110000      44.02580000      37.73640000
I       37.73640000      44.02580000      47.17050000
I       37.73640000      47.17050000      44.02580000
I       40.88110000      44.02580000      44.02580000
I       37.73640000      44.02580000      53.45990000
I       37.73640000      47.17050000      50.31520000
I       40.88110000      44.02580000      50.31520000
I       37.73640000      44.02580000      59.74930000
I       37.73640000      47.17050000      56.60460000
I       40.88110000      44.02580000      56.60460000
I       37.73640000      44.02580000      66.03870000
I       37.73640000      47.17050000      62.89400000
I       40.88110000      44.02580000      62.89400000
I       37.73640000      44.02580000      72.32810000
I       37.73640000      47.17050000      69.18340000
I       40.88110000      44.02580000      69.18340000
I       37.73640000      50.31520000       3.14470000
I       37.73640000      53.45990000       0.00000000
I       40.88110000      50.31520000       0.00000000
I       37.73640000      50.31520000       9.43410000
I       37.73640000      53.45990000       6.28940000
I       40.88110000      50.31520000       6.28940000
I       37.73640000      50.31520000      15.72350000
I       37.73640000      53.45990000      12.57880000
I       40.88110000      50.31520000      12.57880000
I       37.73640000      50.31520000      22.01290000
I       37.73640000      53.45990000      18.86820000
I       40.88110000      50.31520000      18.86820000
I       37.73640000      50.31520000      28.30230000
I       37.73640000      53.45990000      25.15760000
I       40.88110000      50.31520000      25.15760000
I       37.73640000      50.31520000      34.59170000
I       37.73640000      53.45990000      31.44700000
I       40.88110000      50.31520000      31.44700000
I       37.73640000      50.31520000      40.88110000
I       37.73640000      53.45990000      37.73640000
I       40.88110000      50.31520000      37.73640000
I       37.73640000      50.31520000      47.17050000
I       37.73640000      53.45990000      44.02580000
I       40.88110000      50.31520000      44.02580000
I       37.73640000      50.31520000      53.45990000
I       37.73640000      53.45990000      50.31520000
I       40.88110000      50.31520000      50.31520000
I       37.73640000      50.31520000      59.74930000
I       37.73640000      53.45990000      56.60460000
I       40.88110000      50.31520000      56.60460000
I       37.73640000      50.31520000      66.03870000
I       37.73640000      53.45990000      62.89400000
I       40.88110000      50.31520000      62.89400000
I       37.73640000      50.31520000      72.32810000
I       37.73640000      53.45990000      69.18340000
I       40.88110000      50.31520000      69.18340000
I       37.73640000      56.60460000       3.14470000
I       37.73640000      59.74930000       0.00000000
I       40.88110000      56.60460000       0.00000000
I       37.73640000      56.60460000       9.43410000
I       37.73640000      59.74930000       6.28940000
I       40.88110000      56.60460000       6.28940000
I       37.73640000      56.60460000      15.72350000
I       37.73640000      59.74930000      12.57880000
I       40.88110000      56.60460000      12.57880000
I       37.73640000      56.60460000      22.01290000
I       37.73640000      59.74930000      18.86820000
I       40.88110000      56.60460000      18.86820000
I       37.73640000      56.60460000      28.30230000
I       37.73640000      59.74930000      25.15760000
I       40.88110000      56.60460000      25.15760000
I       37.73640000      56.60460000      34.59170000
I       37.73640000      59.74930000      31.44700000
I       40.88110000      56.60460000      31.44700000
I       37.73640000      56.60460000      40.88110000
I       37.73640000      59.74930000      37.73640000
I       40.88110000      56.60460000      37.73640000
I       37.73640000      56.60460000      47.17050000
I       37.73640000      59.74930000      44.02580000
I       40.88110000      56.60460000      44.02580000
I       37.73640000      56.60460000      53.45990000
I       37.73640000      59.74930000      50.31520000
I       40.88110000      56.60460000      50.31520000
I       37.73640000      56.60460000      59.74930000
I       37.73640000      59.74930000      56.60460000
I       40.88110000      56.60460000      56.60460000
I       37.73640000      56.60460000      66.03870000
I       37.73640000      59.74930000      62.89400000
I       40.88110000      56.60460000      62.89400000
I       37.73640000      56.60460000      72.32810000
I       37.73640000      59.74930000      69.18340000
I       40.88110000      56.60460000      69.18340000
I       37.73640000      62.89400000       3.14470000
I       37.73640000      66.03870000       0.00000000
I       40.88110000      62.89400000       0.00000000
I       37.73640000      62.89400000       9.43410000
I       37.73640000      66.03870000       6.28940000
I       40.88110000      62.89400000       6.28940000
I       37.73640000      62.89400000      15.72350000
I       37.73640000      66.03870000      12.57880000
I       40.88110000      62.89400000      12.57880000
I       37.73640000      62.89400000      22.01290000
I       37.73640000      66.03870000      18.86820000
I       40.88110000      62.89400000      18.86820000
I       37.73640000      62.89400000      28.30230000
I       37.73640000      66.03870000      25.15760000
I       40.88110000      62.89400000      25.15760000
I       37.73640000      62.89400000      34.59170000
I       37.73640000      66.03870000      31.44700000
I       40.88110000      62.89400000      31.44700000
I       37.73640000      62.89400000      40.88110000
I       37.73640000      66.03870000      37.73640000
I       40.88110000      62.89400000      37.73640000
I       37.73640000      62.89400000      47.17050000
I       37.73640000      66.03870000      44.02580000
I       40.88110000      62.89400000      44.02580000
I       37.73640000      62.89400000      53.45990000
I       37.73640000      66.03870000      50.31520000
I       40.88110000      62.89400000      50.31520000
I       37.73640000      62.89400000      59.74930000
I       37.73640000      66.03870000      56.60460000
I       40.88110000      62.89400000      56.60460000
I       37.73640000      62.89400000      66.03870000
I       37.73640000      66.03870000      62.89400000
I       40.88110000      62.89400000      62.89400000
I       37.73640000      62.89400000      72.32810000
I       37.73640000      66.03870000      69.18340000
I       40.88110000      62.89400000      69.18340000
I       37.73640000      69.18340000       3.14470000
I       37.73640000      72.32810000       0.00000000
I       40.88110000      69.18340000       0.00000000
I       37.73640000      69.18340000       9.43410000
I       37.73640000      72.32810000       6.28940000
I       40.88110000      69.18340000       6.28940000
I       37.73640000      69.18340000      15.72350000
I       37.73640000      72.32810000      12.57880000
I       40.88110000      69.18340000      12.57880000
I       37.73640000      69.18340000      22.01290000
I       37.73640000      72.32810000      18.86820000
I       40.88110000      69.18340000      18.86820000
I       37.73640000      69.18340000      28.30230000
I       37.73640000      72.32810000      25.15760000
I       40.88110000      69.18340000      25.15760000
I       37.73640000      69.18340000      34.59170000
I       37.73640000      72.32810000      31.44700000
I       40.88110000      69.18340000      31.44700000
I       37.73640000      69.18340000      40.88110000
I       37.73640000      72.32810000      37.73640000
I       40.88110000      69.18340000      37.73640000
I       37.73640000      69.18340000      47.17050000
I       37.73640000      72.32810000      44.02580000
I       40.88110000      69.18340000      44.02580000
I       37.73640000      69.18340000      53.45990000
I       37.73640000      72.32810000      50.31520000
I       40.88110000      69.18340000      50.31520000
I       37.73640000      69.18340000      59.74930000
I       37.73640000      72.32810000      56.60460000
I       40.88110000      69.18340000      56.60460000
I       37.73640000      69.18340000      66.03870000
I       37.73640000      72.32810000      62.89400000
I       40.88110000      69.18340000      62.89400000
I       37.73640000      69.18340000      72.32810000
I       37.73640000      72.32810000      69.18340000
I       40.88110000      69.18340000      69.18340000
I       44.02580000       0.00000000       3.14470000
I       44.02580000       3.14470000       0.00000000
I       47.17050000       0.00000000       0.00000000
I       44.02580000       0.00000000       9.43410000
I       44.02580000       3.14470000       6.28940000
I       47.17050000       0.00000000       6.28940000
I       44.02580000       0.00000000      15.72350000
I       44.02580000       3.14470000      12.57880000
I       47.17050000       0.00000000      12.57880000
I       44.02580000       0.00000000      22.01290000
I       44.02580000       3.14470000      18.86820000
I       47.17050000       0.00000000      18.86820000
I       44.02580000       0.00000000      28.30230000
I       44.02580000       3.14470000      25.15760000
I       47.17050000       0.00000000      25.15760000
I       44.02580000       0.00000000      34.59170000
I       44.02580000       3.14470000      31.44700000
I       47.17050000       0.00000000      31.44700000
I       44.02580000       0.00000000      40.88110000
I       44.02580000       3.14470000      37.73640000
I       47.17050000       0.00000000      37.73640000
I       44.02580000       0.00000000      47.17050000
I       44.02580000       3.14470000      44.02580000
I       47.17050000       0.00000000      44.02580000
I       44.02580000       0.00000000      53.45990000
I       44.02580000       3.14470000      50.31520000
I       47.17050000       0.00000000      50.31520000
I       44.02580000       0.00000000      59.74930000
I       44.02580000       3.14470000      56.60460000
I       47.17050000       0.00000000      56.60460000
I       44.02580000       0.00000000      66.03870000
I       44.02580000       3.14470000      62.89400000
I       47.17050000       0.00000000      62.89400000
I       44.02580000       0.00000000      72.32810000
I       44.02580000       3.14470000      69.18340000
I       47.17050000       0.00000000      69.18340000
I       44.02580000       6.28940000       3.14470000
I       44.02580000       9.43410000       0.00000000
I       47.17050000       6.28940000       0.00000000
I       44.02580000       6.28940000       9.43410000
I       44.02580000       9.43410000       6.28940000
I       47.17050000       6.28940000       6.28940000
I       44.02580000       6.28940000      15.72350000
I       44.02580000       9.43410000      12.57880000
I       47.17050000       6.28940000      12.57880000
I       44.02580000       6.28940000      22.01290000
I       44.02580000       9.43410000      18.86820000
I       47.17050000       6.28940000      18.86820000
I       44.02580000       6.28940000      28.30230000
I       44.02580000       9.43410000      25.15760000
I       47.17050000       6.28940000      25.15760000
I       44.02580000       6.28940000      34.59170000
I       44.02580000       9.43410000      31.44700000
I       47.17050000       6.28940000      31.44700000
I       44.02580000       6.28940000      40.88110000
I       44.02580000       9.43410000      37.73640000
I       47.17050000       6.28940000      37.73640000
I       44.02580000       6.28940000      47.17050000
I       44.02580000       9.43410000      44.02580000
I       47.17050000       6.28940000      44.02580000
I       44.02580000       6.28940000      53.45990000
I       44.02580000       9.43410000      50.31520000
I       47.17050000       6.28940000      50.31520000
I       44.02580000       6.28940000      59.74930000
I       44.02580000       9.43410000      56.60460000
I       47.17050000       6.28940000      56.60460000
I       44.02580000       6.28940000      66.03870000
I       44.02580000       9.43410000      62.89400000
I       47.17050000       6.28940000      62.89400000
I       44.02580000       6.28940000      72.32810000
I       44.02580000       9.43410000      69.18340000
I       47.17050000       6.28940000      69.18340000
I       44.02580000      12.57880000       3.14470000
I       44.02580000      15.72350000       0.00000000
I       47.17050000      12.57880000       0.00000000
I       44.02580000      12.57880000       9.43410000
I       44.02580000      15.72350000       6.28940000
I       47.17050000      12.57880000       6.28940000
I       44.02580000      12.57880000      15.72350000
I       44.02580000      15.72350000      12.57880000
I       47.17050000      12.57880000      12.57880000
I       44.02580000      12.57880000      22.01290000
I       44.02580000      15.72350000      18.86820000
I       47.17050000      12.57880000      18.86820000
I       44.02580000      12.57880000      28.30230000
I       44.02580000      15.72350000      25.15760000
I       47.17050000      12.57880000      25.15760000
I       44.02580000      12.57880000      34.59170000
I       44.02580000      15.72350000      31.44700000
I       47.17050000      12.57880000      31.44700000
I       44.02580000      12.57880000      40.88110000
I       44.02580000      15.72350000      37.73640000
I       47.17050000      12.57880000      37.73640000
I       44.02580000      12.57880000      47.17050000
I       44.02580000      15.72350000      44.02580000
I       47.17050000      12.57880000      44.02580000
I       44.02580000      12.57880000      53.45990000
I       44.02580000      15.72350000      50.31520000
I       47.17050000      12.57880000      50.31520000
I       44.02580000      12.57880000      59.74930000
I       44.02580000      15.72350000      56.60460000
I       47.17050000      12.57880000      56.60460000
I       44.02580000      12.57880000      66.03870000
I       44.02580000      15.72350000      62.89400000
I       47.17050000      12.57880000      62.89400000
I       44.02580000      12.57880000      72.32810000
I       44.02580000      15.72350000      69.18340000
I       47.17050000      12.57880000      69.18340000
I       44.02580000      18.86820000       3.14470000
I       44.02580000      22.01290000       0.00000000
I       47.17050000      18.86820000       0.00000000
I       44.02580000      18.86820000       9.43410000
I       44.02580000      22.01290000       6.28940000
I       47.17050000      18.86820000       6.28940000
I       44.02580000      18.86820000      15.72350000
I       44.02580000      22.01290000      12.57880000
I       47.17050000      18.86820000      12.57880000
I       44.02580000      18.86820000      22.01290000
I       44.02580000      22.01290000      18.86820000
I       47.17050000      18.86820000      18.86820000
I       44.02580000      18.86820000      28.30230000
I       44.02580000      22.01290000      25.15760000
I       47.17050000      18.86820000      25.15760000
I       44.02580000      18.86820000      34.59170000
I       44.02580000      22.01290000      31.44700000
I       47.17050000      18.86820000      31.44700000
I       44.02580000      18.86820000      40.88110000
I       44.02580000      22.01290000      37.73640000
I       47.17050000      18.86820000      37.73640000
I       44.02580000      18.86820000      47.17050000
I       44.02580000      22.01290000      44.02580000
I       47.17050000      18.86820000      44.02580000
I       44.02580000      18.86820000      53.45990000
I       44.02580000      22.01290000      50.31520000
I       47.17050000      18.86820000      50.31520000
I       44.02580000      18.86820000      59.74930000
I       44.02580000      22.01290000      56.60460000
I       47.17050000      18.86820000      56.60460000
I       44.02580000      18.86820000      66.03870000
I       44.02580000      22.01290000      62.89400000
I       47.17050000      18.86820000      62.89400000
I       44.02580000      18.86820000      72.32810000
I       44.02580000      22.01290000      69.18340000
I       47.17050000      18.86820000      69.18340000
I       44.02580000      25.15760000       3.14470000
I       44.02580000      28.30230000       0.00000000
I       47.17050000      25.15760000       0.00000000
I       44.02580000      25.15760000       9.43410000
I       44.02580000      28.30230000       6.28940000
I       47.17050000      25.15760000       6.28940000
I       44.02580000      25.15760000      15.72350000
I       44.02580000      28.30230000      12.57880000
I       47.17050000      25.15760000      12.57880000
I       44.02580000      25.15760000      22.01290000
I       44.02580000      28.30230000      18.86820000
I       47.17050000      25.15760000      18.86820000
I       44.02580000      25.15760000      28.30230000
I       44.02580000      28.30230000      25.15760000
I       47.17050000      25.15760000      25.15760000
I       44.02580000      25.15760000      34.59170000
I       44.02580000      28.30230000      31.44700000
I       47.17050000      25.15760000      31.44700000
I       44.02580000      25.15760000      40.88110000
I       44.02580000      28.30230000      37.73640000
I       47.17050000      25.15760000      37.73640000
I       44.02580000      25.15760000      47.17050000
I       44.02580000      28.30230000      44.02580000
I       47.17050000      25.15760000      44.02580000
I       44.02580000      25.15760000      53.45990000
I       44.02580000      28.30230000      50.31520000
I       47.17050000      25.15760000      50.31520000
I       44.02580000      25.15760000      59.74930000
I       44.02580000      28.30230000      56.60460000
I       47.17050000      25.15760000      56.60460000
I       44.02580000      25.15760000      66.03870000
I       44.02580000      28.30230000      62.89400000
I       47.17050000      25.15760000      62.89400000
I       44.02580000      25.15760000      72.32810000
I       44.02580000      28.30230000      69.18340000
I       47.17050000      25.15760000      69.18340000
I       44.02580000      31.44700000       3.14470000
I       44.02580000      34.59170000       0.00000000
I       47.17050000      31.44700000       0.00000000
I       44.02580000      31.44700000       9.43410000
I       44.02580000      34.59170000       6.28940000
I       47.17050000      31.44700000       6.28940000
I       44.02580000      31.44700000      15.72350000
I       44.02580000      34.59170000      12.57880000
I       47.17050000      31.44700000      12.57880000
I       44.02580000      31.44700000      22.01290000
I       44.02580000      34.59170000      18.86820000
I       47.17050000      31.44700000      18.86820000
I       44.02580000      31.44700000      28.30230000
I       44.02580000      34.59170000      25.15760000
I       47.17050000      31.44700000      25.15760000
I       44.02580000      31.44700000      34.59170000
I       44.02580000      34.59170000      31.44700000
I       47.17050000      31.44700000      31.44700000
I       44.02580000      31.44700000      40.88110000
I       44.02580000      34.59170000      37.73640000
I       47.17050000      31.44700000      37.73640000
I       44.02580000      31.44700000      47.17050000
I       44.02580000      34.59170000      44.02580000
I       47.17050000      31.44700000      44.02580000
I       44.02580000      31.44700000      53.45990000
I       44.02580000      34.59170000      50.31520000
I       47.17050000      31.44700000      50.31520000
I       44.02580000      31.44700000      59.74930000
I       44.02580000      34.59170000      56.60460000
I       47.17050000      31.44700000      56.60460000
I       44.02580000      31.44700000      66.03870000
I       44.02580000      34.59170000      62.89400000
I       47.17050000      31.44700000      62.89400000
I       44.02580000      31.44700000      72.32810000
I       44.02580000      34.59170000      69.18340000
I       47.17050000      31.44700000      69.18340000
I       44.02580000      37.73640000       3.14470000
I       44.02580000      40.88110000       0.00000000
I       47.17050000      37.73640000       0.00000000
I       44.02580000      37.73640000       9.43410000
I       44.02580000      40.88110000       6.28940000
I       47.17050000      37.73640000       6.28940000
I       44.02580000      37.73640000      15.72350000
I       44.02580000      40.88110000      12.57880000
I       47.17050000      37.73640000      12.57880000
I       44.02580000      37.73640000      22.01290000
I       44.02580000      40.88110000      18.86820000
I       47.17050000      37.73640000      18.86820000
I       44.02580000      37.73640000      28.30230000
I       44.02580000      40.88110000      25.15760000
I       47.17050000      37.73640000      25.15760000
I       44.02580000      37.73640000      34.59170000
I       44.02580000      40.88110000      31.44700000
I       47.17050000      37.73640000      31.44700000
I       44.02580000      37.73640000      40.88110000
I       44.02580000      40.88110000      37.73640000
I       47.17050000      37.73640000      37.73640000
I       44.02580000      37.73640000      47.17050000
I       44.02580000      40.88110000      44.02580000
I       47.17050000      37.73640000      44.02580000
I       44.02580000      37.73640000      53.45990000
I       44.02580000      40.88110000      50.31520000
I       47.17050000      37.73640000      50.31520000
I       44.02580000      37.73640000      59.74930000
I       44.02580000      40.88110000      56.60460000
I       47.17050000      37.73640000      56.60460000
I       44.02580000      37.73640000      66.03870000
I       44.02580000      40.88110000      62.89400000
I       47.17050000      37.73640000      62.89400000
I       44.02580000      37.73640000      72.32810000
I       44.02580000      40.88110000      69.18340000
I       47.17050000      37.73640000      69.18340000
I       44.02580000      44.02580000       3.14470000
I       44.02580000      47.17050000       0.00000000
I       47.17050000      44.02580000       0.00000000
I       44.02580000      44.02580000       9.43410000
I       44.02580000      47.17050000       6.28940000
I       47.17050000      44.02580000       6.28940000
I       44.02580000      44.02580000      15.72350000
I       44.02580000      47.17050000      12.57880000
I       47.17050000      44.02580000      12.57880000
I       44.02580000      44.02580000      22.01290000
I       44.02580000      47.17050000      18.86820000
I       47.17050000      44.02580000      18.86820000
I       44.02580000      44.02580000      28.30230000
I       44.02580000      47.17050000      25.15760000
I       47.17050000      44.02580000      25.15760000
I       44.02580000      44.02580000      34.59170000
I       44.02580000      47.17050000      31.44700000
I       47.17050000      44.02580000      31.44700000
I       44.02580000      44.02580000      40.88110000
I       44.02580000      47.17050000      37.73640000
I       47.17050000      44.02580000      37.73640000
I       44.02580000      44.02580000      47.17050000
I       44.02580000      47.17050000      44.02580000
I       47.17050000      44.02580000      44.02580000
I       44.02580000      44.02580000      53.45990000
I       44.02580000      47.17050000      50.31520000
I       47.17050000      44.02580000      50.31520000
I       44.02580000      44.02580000      59.74930000
I       44.02580000      47.17050000      56.60460000
I       47.17050000      44.02580000      56.60460000
I       44.02580000      44.02580000      66.03870000
I       44.02580000      47.17050000      62.89400000
I       47.17050000      44.02580000      62.89400000
I       44.02580000      44.02580000      72.32810000
I       44.02580000      47.17050000      69.18340000
I       47.17050000      44.02580000      69.18340000
I       44.02580000      50.31520000       3.14470000
I       44.02580000      53.45990000       0.00000000
I       47.17050000      50.31520000       0.00000000
I       44.02580000      50.31520000       9.43410000
I       44.02580000      53.45990000       6.28940000
I       47.17050000      50.31520000       6.28940000
I       44.02580000      50.31520000      15.72350000
I       44.02580000      53.45990000      12.57880000
I       47.17050000      50.31520000      12.57880000
I       44.02580000      50.31520000      22.01290000
I       44.02580000      53.45990000      18.86820000
I       47.17050000      50.31520000      18.86820000
I       44.02580000      50.31520000      28.30230000
I       44.02580000      53.45990000      25.15760000
I       47.17050000      50.31520000      25.15760000
I       44.02580000      50.31520000      34.59170000
I       44.02580000      53.45990000      31.44700000
I       47.17050000      50.31520000      31.44700000
I       44.02580000      50.31520000      40.88110000
I       44.02580000      53.45990000      37.73640000
I       47.17050000      50.31520000      37.73640000
I       44.02580000      50.31520000      47.17050000
I       44.02580000      53.45990000      44.02580000
I       47.17050000      50.31520000      44.02580000
I       44.02580000      50.31520000      53.45990000
I       44.02580000      53.45990000      50.31520000
I       47.17050000      50.31520000      50.31520000
I       44.02580000      50.31520000      59.74930000
I       44.02580000      53.45990000      56.60460000
I       47.17050000      50.31520000      56.60460000
I       44.02580000      50.31520000      66.03870000
I       44.02580000      53.45990000      62.89400000
I       47.17050000      50.31520000      62.89400000
I       44.02580000      50.31520000      72.32810000
I       44.02580000      53.45990000      69.18340000
I       47.17050000      50.31520000      69.18340000
I       44.02580000      56.60460000       3.14470000
I       44.02580000      59.74930000       0.00000000
I       47.17050000      56.60460000       0.00000000
I       44.02580000      56.60460000       9.43410000
I       44.02580000      59.74930000       6.28940000
I       47.17050000      56.60460000       6.28940000
I       44.02580000      56.60460000      15.72350000
I       44.02580000      59.74930000      12.57880000
I       47.17050000      56.60460000      12.57880000
I       44.02580000      56.60460000      22.01290000
I       44.02580000      59.74930000      18.86820000
I       47.17050000      56.60460000      18.86820000
I       44.02580000      56.60460000      28.30230000
I       44.02580000      59.74930000      25.15760000
I       47.17050000      56.60460000      25.15760000
I       44.02580000      56.60460000      34.59170000
I       44.02580000      59.74930000      31.44700000
I       47.17050000      56.60460000      31.44700000
I       44.02580000      56.60460000      40.88110000
I       44.02580000      59.74930000      37.73640000
I       47.17050000      56.60460000      37.73640000
I       44.02580000      56.60460000      47.17050000
I       44.02580000      59.74930000      44.02580000
I       47.17050000      56.60460000      44.02580000
I       44.02580000      56.60460000      53.45990000
I       44.02580000      59.74930000      50.31520000
I       47.17050000      56.60460000      50.31520000
I       44.02580000      56.60460000      59.74930000
I       44.02580000      59.74930000      56.60460000
I       47.17050000      56.60460000      56.60460000
I       44.02580000      56.60460000      66.03870000
I       44.02580000      59.74930000      62.89400000
I       47.17050000      56.60460000      62.89400000
I       44.02580000      56.60460000      72.32810000
I       44.02580000      59.74930000      69.18340000
I       47.17050000      56.60460000      69.18340000
I       44.02580000      62.89400000       3.14470000
I       44.02580000      66.03870000       0.00000000
I       47.17050000      62.89400000       0.00000000
I       44.02580000      62.89400000       9.43410000
I       44.02580000      66.03870000       6.28940000
I       47.17050000      62.89400000       6.28940000
I       44.02580000      62.89400000      15.72350000
I       44.02580000      66.03870000      12.57880000
I       47.17050000      62.89400000      12.57880000
I       44.02580000      62.89400000      22.01290000
I       44.02580000      66.03870000      18.86820000
I       47.17050000      62.89400000      18.86820000
I       44.02580000      62.89400000      28.30230000
I       44.02580000      66.03870000      25.15760000
I       47.17050000      62.89400000      25.15760000
I       44.02580000      62.89400000      34.59170000
I       44.02580000      66.03870000      31.44700000
I       47.17050000      62.89400000      31.44700000
I       44.02580000      62.89400000      40.88110000
I       44.02580000      66.03870000      37.73640000
I       47.17050000      62.89400000      37.73640000
I       44.02580000      62.89400000      47.17050000
I       44.02580000      66.03870000      44.02580000
I       47.17050000      62.89400000      44.02580000
I       44.02580000      62.89400000      53.45990000
I       44.02580000      66.03870000      50.31520000
I       47.17050000      62.89400000      50.31520000
I       44.02580000      62.89400000      59.74930000
I       44.02580000      66.03870000      56.60460000
I       47.17050000      62.89400000      56.60460000
I       44.02580000      62.89400000      66.03870000
I       44.02580000      66.03870000      62.89400000
I       47.17050000      62.89400000      62.89400000
I       44.02580000      62.89400000      72.32810000
I       44.02580000      66.03870000      69.18340000
I       47.17050000      62.89400000      69.18340000
I       44.02580000      69.18340000       3.14470000
I       44.02580000      72.32810000       0.00000000
I       47.17050000      69.18340000       0.00000000
I       44.02580000      69.18340000       9.43410000
I       44.02580000      72.32810000       6.28940000
I       47.17050000      69.18340000       6.28940000
I       44.02580000      69.18340000      15.72350000
I       44.02580000      72.32810000      12.57880000
I       47.17050000      69.18340000      12.57880000
I       44.02580000      69.18340000      22.01290000
I       44.02580000      72.32810000      18.86820000
I       47.17050000      69.18340000      18.86820000
I       44.02580000      69.18340000      28.30230000
I       44.02580000      72.32810000      25.15760000
I       47.17050000      69.18340000      25.15760000
I       44.02580000      69.18340000      34.59170000
I       44.02580000      72.32810000      31.44700000
I       47.17050000      69.18340000      31.44700000
I       44.02580000      69.18340000      40.88110000
I       44.02580000      72.32810000      37.73640000
I       47.17050000      69.18340000      37.73640000
I       44.02580000      69.18340000      47.17050000
I       44.02580000      72.32810000      44.02580000
I       47.17050000      69.18340000      44.02580000
I       44.02580000      69.18340000      53.45990000
I       44.02580000      72.32810000      50.31520000
I       47.17050000      69.18340000      50.31520000
I       44.02580000      69.18340000      59.74930000
I       44.02580000      72.32810000      56.60460000
I       47.17050000      69.18340000      56.60460000
I       44.02580000      69.18340000      66.03870000
I       44.02580000      72.32810000      62.89400000
I       47.17050000      69.18340000      62.89400000
I       44.02580000      69.18340000      72.32810000
I       44.02580000      72.32810000      69.18340000
I       47.17050000      69.18340000      69.18340000
I       50.31520000       0.00000000       3.14470000
I       50.31520000       3.14470000       0.00000000
I       53.45990000       0.00000000       0.00000000
I       50.31520000       0.00000000       9.43410000
I       50.31520000       3.14470000       6.28940000
I       53.45990000       0.00000000       6.28940000
I       50.31520000       0.00000000      15.72350000
I       50.31520000       3.14470000      12.57880000
I       53.45990000       0.00000000      12.57880000
I       50.31520000       0.00000000      22.01290000
I       50.31520000       3.14470000      18.86820000
I       53.45990000       0.00000000      18.86820000
I       50.31520000       0.00000000      28.30230000
I       50.31520000       3.14470000      25.15760000
I       53.45990000       0.00000000      25.15760000
I       50.31520000       0.00000000      34.59170000
I       50.31520000       3.14470000      31.44700000
I       53.45990000       0.00000000      31.44700000
I       50.31520000       0.00000000      40.88110000
I       50.31520000       3.14470000      37.73640000
I       53.45990000       0.00000000      37.73640000
I       50.31520000       0.00000000      47.17050000
I       50.31520000       3.14470000      44.02580000
I       53.45990000       0.00000000      44.02580000
I       50.31520000       0.00000000      53.45990000
I       50.31520000       3.14470000      50.31520000
I       53.45990000       0.00000000      50.31520000
I       50.31520000       0.00000000      59.74930000
I       50.31520000       3.14470000      56.60460000
I       53.45990000       0.00000000      56.60460000
I       50.31520000       0.00000000      66.03870000
I       50.31520000       3.14470000      62.89400000
I       53.45990000       0.00000000      62.89400000
I       50.31520000       0.00000000      72.32810000
I       50.31520000       3.14470000      69.18340000
I       53.45990000       0.00000000      69.18340000
I       50.31520000       6.28940000       3.14470000
I       50.31520000       9.43410000       0.00000000
I       53.45990000       6.28940000       0.00000000
I       50.31520000       6.28940000       9.43410000
I       50.31520000       9.43410000       6.28940000
I       53.45990000       6.28940000       6.28940000
I       50.31520000       6.28940000      15.72350000
I       50.31520000       9.43410000      12.57880000
I       53.45990000       6.28940000      12.57880000
I       50.31520000       6.28940000      22.01290000
I       50.31520000       9.43410000      18.86820000
I       53.45990000       6.28940000      18.86820000
I       50.31520000       6.28940000      28.30230000
I       50.31520000       9.43410000      25.15760000
I       53.45990000       6.28940000      25.15760000
I       50.31520000       6.28940000      34.59170000
I       50.31520000       9.43410000      31.44700000
I       53.45990000       6.28940000      31.44700000
I       50.31520000       6.28940000      40.88110000
I       50.31520000       9.43410000      37.73640000
I       53.45990000       6.28940000      37.73640000
I       50.31520000       6.28940000      47.17050000
I       50.31520000       9.43410000      44.02580000
I       53.45990000       6.28940000      44.02580000
I       50.31520000       6.28940000      53.45990000
I       50.31520000       9.43410000      50.31520000
I       53.45990000       6.28940000      50.31520000
I       50.31520000       6.28940000      59.74930000
I       50.31520000       9.43410000      56.60460000
I       53.45990000       6.28940000      56.60460000
I       50.31520000       6.28940000      66.03870000
I       50.31520000       9.43410000      62.89400000
I       53.45990000       6.28940000      62.89400000
I       50.31520000       6.28940000      72.32810000
I       50.31520000       9.43410000      69.18340000
I       53.45990000       6.28940000      69.18340000
I       50.31520000      12.57880000       3.14470000
I       50.31520000      15.72350000       0.00000000
I       53.45990000      12.57880000       0.00000000
I       50.31520000      12.57880000       9.43410000
I       50.31520000      15.72350000       6.28940000
I       53.45990000      12.57880000       6.28940000
I       50.31520000      12.57880000      15.72350000
I       50.31520000      15.72350000      12.57880000
I       53.45990000      12.57880000      12.57880000
I       50.31520000      12.57880000      22.01290000
I       50.31520000      15.72350000      18.86820000
I       53.45990000      12.57880000      18.86820000
I       50.31520000      12.57880000      28.30230000
I       50.31520000      15.72350000      25.15760000
I       53.45990000      12.57880000      25.15760000
I       50.31520000      12.57880000      34.59170000
I       50.31520000      15.72350000      31.44700000
I       53.45990000      12.57880000      31.44700000
I       50.31520000      12.57880000      40.88110000
I       50.31520000      15.72350000      37.73640000
I       53.45990000      12.57880000      37.73640000
I       50.31520000      12.57880000      47.17050000
I       50.31520000      15.72350000      44.02580000
I       53.45990000      12.57880000      44.02580000
I       50.31520000      12.57880000      53.45990000
I       50.31520000      15.72350000      50.31520000
I       53.45990000      12.57880000      50.31520000
I       50.31520000      12.57880000      59.74930000
I       50.31520000      15.72350000      56.60460000
I       53.45990000      12.57880000      56.60460000
I       50.31520000      12.57880000      66.03870000
I       50.31520000      15.72350000      62.89400000
I       53.45990000      12.57880000      62.89400000
I       50.31520000      12.57880000      72.32810000
I       50.31520000      15.72350000      69.18340000
I       53.45990000      12.57880000      69.18340000
I       50.31520000      18.86820000       3.14470000
I       50.31520000      22.01290000       0.00000000
I       53.45990000      18.86820000       0.00000000
I       50.31520000      18.86820000       9.43410000
I       50.31520000      22.01290000       6.28940000
I       53.45990000      18.86820000       6.28940000
I       50.31520000      18.86820000      15.72350000
I       50.31520000      22.01290000      12.57880000
I       53.45990000      18.86820000      12.57880000
I       50.31520000      18.86820000      22.01290000
I       50.31520000      22.01290000      18.86820000
I       53.45990000      18.86820000      18.86820000
I       50.31520000      18.86820000      28.30230000
I       50.31520000      22.01290000      25.15760000
I       53.45990000      18.86820000      25.15760000
I       50.31520000      18.86820000      34.59170000
I       50.31520000      22.01290000      31.44700000
I       53.45990000      18.86820000      31.44700000
I       50.31520000      18.86820000      40.88110000
I       50.31520000      22.01290000      37.73640000
I       53.45990000      18.86820000      37.73640000
I       50.31520000      18.86820000      47.17050000
I       50.31520000      22.01290000      44.02580000
I       53.45990000      18.86820000      44.02580000
I       50.31520000      18.86820000      53.45990000
I       50.31520000      22.01290000      50.31520000
I       53.45990000      18.86820000      50.31520000
I       50.31520000      18.86820000      59.74930000
I       50.31520000      22.01290000      56.60460000
I       53.45990000      18.86820000      56.60460000
I       50.31520000      18.86820000      66.03870000
I       50.31520000      22.01290000      62.89400000
I       53.45990000      18.86820000      62.89400000
I       50.31520000      18.86820000      72.32810000
I       50.31520000      22.01290000      69.18340000
I       53.45990000      18.86820000      69.18340000
I       50.31520000      25.15760000       3.14470000
I       50.31520000      28.30230000       0.00000000
I       53.45990000      25.15760000       0.00000000
I       50.31520000      25.15760000       9.43410000
I       50.31520000      28.30230000       6.28940000
I       53.45990000      25.15760000       6.28940000
I       50.31520000      25.15760000      15.72350000
I       50.31520000      28.30230000      12.57880000
I       53.45990000      25.15760000      12.57880000
I       50.31520000      25.15760000      22.01290000
I       50.31520000      28.30230000      18.86820000
I       53.45990000      25.15760000      18.86820000
I       50.31520000      25.15760000      28.30230000
I       50.31520000      28.30230000      25.15760000
I       53.45990000      25.15760000      25.15760000
I       50.31520000      25.15760000      34.59170000
I       50.31520000      28.30230000      31.44700000
I       53.45990000      25.15760000      31.44700000
I       50.31520000      25.15760000      40.88110000
I       50.31520000      28.30230000      37.73640000
I       53.45990000      25.15760000      37.73640000
I       50.31520000      25.15760000      47.17050000
I       50.31520000      28.30230000      44.02580000
I       53.45990000      25.15760000      44.02580000
I       50.31520000      25.15760000      53.45990000
I       50.31520000      28.30230000      50.31520000
I       53.45990000      25.15760000      50.31520000
I       50.31520000      25.15760000      59.74930000
I       50.31520000      28.30230000      56.60460000
I       53.45990000      25.15760000      56.60460000
I       50.31520000      25.15760000      66.03870000
I       50.31520000      28.30230000      62.89400000
I       53.45990000      25.15760000      62.89400000
I       50.31520000      25.15760000      72.32810000
I       50.31520000      28.30230000      69.18340000
I       53.45990000      25.15760000      69.18340000
I       50.31520000      31.44700000       3.14470000
I       50.31520000      34.59170000       0.00000000
I       53.45990000      31.44700000       0.00000000
I       50.31520000      31.44700000       9.43410000
I       50.31520000      34.59170000       6.28940000
I       53.45990000      31.44700000       6.28940000
I       50.31520000      31.44700000      15.72350000
I       50.31520000      34.59170000      12.57880000
I       53.45990000      31.44700000      12.57880000
I       50.31520000      31.44700000      22.01290000
I       50.31520000      34.59170000      18.86820000
I       53.45990000      31.44700000      18.86820000
I       50.31520000      31.44700000      28.30230000
I       50.31520000      34.59170000      25.15760000
I       53.45990000      31.44700000      25.15760000
I       50.31520000      31.44700000      34.59170000
I       50.31520000      34.59170000      31.44700000
I       53.45990000      31.44700000      31.44700000
I       50.31520000      31.44700000      40.88110000
I       50.31520000      34.59170000      37.73640000
I       53.45990000      31.44700000      37.73640000
I       50.31520000      31.44700000      47.17050000
I       50.31520000      34.59170000      44.02580000
I       53.45990000      31.44700000      44.02580000
I       50.31520000      31.44700000      53.45990000
I       50.31520000      34.59170000      50.31520000
I       53.45990000      31.44700000      50.31520000
I       50.31520000      31.44700000      59.74930000
I       50.31520000      34.59170000      56.60460000
I       53.45990000      31.44700000      56.60460000
I       50.31520000      31.44700000      66.03870000
I       50.31520000      34.59170000      62.89400000
I       53.45990000      31.44700000      62.89400000
I       50.31520000      31.44700000      72.32810000
I       50.31520000      34.59170000      69.18340000
I       53.45990000      31.44700000      69.18340000
I       50.31520000      37.73640000       3.14470000
I       50.31520000      40.88110000       0.00000000
I       53.45990000      37.73640000       0.00000000
I       50.31520000      37.73640000       9.43410000
I       50.31520000      40.88110000       6.28940000
I       53.45990000      37.73640000       6.28940000
I       50.31520000      37.73640000      15.72350000
I       50.31520000      40.88110000      12.57880000
I       53.45990000      37.73640000      12.57880000
I       50.31520000      37.73640000      22.01290000
I       50.31520000      40.88110000      18.86820000
I       53.45990000      37.73640000      18.86820000
I       50.31520000      37.73640000      28.30230000
I       50.31520000      40.88110000      25.15760000
I       53.45990000      37.73640000      25.15760000
I       50.31520000      37.73640000      34.59170000
I       50.31520000      40.88110000      31.44700000
I       53.45990000      37.73640000      31.44700000
I       50.31520000      37.73640000      40.88110000
I       50.31520000      40.88110000      37.73640000
I       53.45990000      37.73640000      37.73640000
I       50.31520000      37.73640000      47.17050000
I       50.31520000      40.88110000      44.02580000
I       53.45990000      37.73640000      44.02580000
I       50.31520000      37.73640000      53.45990000
I       50.31520000      40.88110000      50.31520000
I       53.45990000      37.73640000      50.31520000
I       50.31520000      37.73640000      59.74930000
I       50.31520000      40.88110000      56.60460000
I       53.45990000      37.73640000      56.60460000
I       50.31520000      37.73640000      66.03870000
I       50.31520000      40.88110000      62.89400000
I       53.45990000      37.73640000      62.89400000
I       50.31520000      37.73640000      72.32810000
I       50.31520000      40.88110000      69.18340000
I       53.45990000      37.73640000      69.18340000
I       50.31520000      44.02580000       3.14470000
I       50.31520000      47.17050000       0.00000000
I       53.45990000      44.02580000       0.00000000
I       50.31520000      44.02580000       9.43410000
I       50.31520000      47.17050000       6.28940000
I       53.45990000      44.02580000       6.28940000
I       50.31520000      44.02580000      15.72350000
I       50.31520000      47.17050000      12.57880000
I       53.45990000      44.02580000      12.57880000
I       50.31520000      44.02580000      22.01290000
I       50.31520000      47.17050000      18.86820000
I       53.45990000      44.02580000      18.86820000
I       50.31520000      44.02580000      28.30230000
I       50.31520000      47.17050000      25.15760000
I       53.45990000      44.02580000      25.15760000
I       50.31520000      44.02580000      34.59170000
I       50.31520000      47.17050000      31.44700000
I       53.45990000      44.02580000      31.44700000
I       50.31520000      44.02580000      40.88110000
I       50.31520000      47.17050000      37.73640000
I       53.45990000      44.02580000      37.73640000
I       50.31520000      44.02580000      47.17050000
I       50.31520000      47.17050000      44.02580000
I       53.45990000      44.02580000      44.02580000
I       50.31520000      44.02580000      53.45990000
I       50.31520000      47.17050000      50.31520000
I       53.45990000      44.02580000      50.31520000
I       50.31520000      44.02580000      59.74930000
I       50.31520000      47.17050000      56.60460000
I       53.45990000      44.02580000      56.60460000
I       50.31520000      44.02580000      66.03870000
I       50.31520000      47.17050000      62.89400000
I       53.45990000      44.02580000      62.89400000
I       50.31520000      44.02580000      72.32810000
I       50.31520000      47.17050000      69.18340000
I       53.45990000      44.02580000      69.18340000
I       50.31520000      50.31520000       3.14470000
I       50.31520000      53.45990000       0.00000000
I       53.45990000      50.31520000       0.00000000
I       50.31520000      50.31520000       9.43410000
I       50.31520000      53.45990000       6.28940000
I       53.45990000      50.31520000       6.28940000
I       50.31520000      50.31520000      15.72350000
I       50.31520000      53.45990000      12.57880000
I       53.45990000      50.31520000      12.57880000
I       50.31520000      50.31520000      22.01290000
I       50.31520000      53.45990000      18.86820000
I       53.45990000      50.31520000      18.86820000
I       50.31520000      50.31520000      28.30230000
I       50.31520000      53.45990000      25.15760000
I       53.45990000      50.31520000      25.15760000
I       50.31520000      50.31520000      34.59170000
I       50.31520000      53.45990000      31.44700000
I       53.45990000      50.31520000      31.44700000
I       50.31520000      50.31520000      40.88110000
I       50.31520000      53.45990000      37.73640000
I       53.45990000      50.31520000      37.73640000
I       50.31520000      50.31520000      47.17050000
I       50.31520000      53.45990000      44.02580000
I       53.45990000      50.31520000      44.02580000
I       50.31520000      50.31520000      53.45990000
I       50.31520000      53.45990000      50.31520000
I       53.45990000      50.31520000      50.31520000
I       50.31520000      50.31520000      59.74930000
I       50.31520000      53.45990000      56.60460000
I       53.45990000      50.31520000      56.60460000
I       50.31520000      50.31520000      66.03870000
I       50.31520000      53.45990000      62.89400000
I       53.45990000      50.31520000      62.89400000
I       50.31520000      50.31520000      72.32810000
I       50.31520000      53.45990000      69.18340000
I       53.45990000      50.31520000      69.18340000
I       50.31520000      56.60460000       3.14470000
I       50.31520000      59.74930000       0.00000000
I       53.45990000      56.60460000       0.00000000
I       50.31520000      56.60460000       9.43410000
I       50.31520000      59.74930000       6.28940000
I       53.45990000      56.60460000       6.28940000
I       50.31520000      56.60460000      15.72350000
I       50.31520000      59.74930000      12.57880000
I       53.45990000      56.60460000      12.57880000
I       50.31520000      56.60460000      22.01290000
I       50.31520000      59.74930000      18.86820000
I       53.45990000      56.60460000      18.86820000
I       50.31520000      56.60460000      28.30230000
I       50.31520000      59.74930000      25.15760000
I       53.45990000      56.60460000      25.15760000
I       50.31520000      56.60460000      34.59170000
I       50.31520000      59.74930000      31.44700000
I       53.45990000      56.60460000      31.44700000
I       50.31520000      56.60460000      40.88110000
I       50.31520000      59.74930000      37.73640000
I       53.45990000      56.60460000      37.73640000
I       50.31520000      56.60460000      47.17050000
I       50.31520000      59.74930000      44.02580000
I       53.45990000      56.60460000      44.02580000
I       50.31520000      56.60460000      53.45990000
I       50.31520000      59.74930000      50.31520000
I       53.45990000      56.60460000      50.31520000
I       50.31520000      56.60460000      59.74930000
I       50.31520000      59.74930000      56.60460000
I       53.45990000      56.60460000      56.60460000
I       50.31520000      56.60460000      66.03870000
I       50.31520000      59.74930000      62.89400000
I       53.45990000      56.60460000      62.89400000
I       50.31520000      56.60460000      72.32810000
I       50.31520000      59.74930000      69.18340000
I       53.45990000      56.60460000      69.18340000
I       50.31520000      62.89400000       3.14470000
I       50.31520000      66.03870000       0.00000000
I       53.45990000      62.89400000       0.00000000
I       50.31520000      62.89400000       9.43410000
I       50.31520000      66.03870000       6.28940000
I       53.45990000      62.89400000       6.28940000
I       50.31520000      62.89400000      15.72350000
I       50.31520000      66.03870000      12.57880000
I       53.45990000      62.89400000      12.57880000
I       50.31520000      62.89400000      22.01290000
I       50.31520000      66.03870000      18.86820000
I       53.45990000      62.89400000      18.86820000
I       50.31520000      62.89400000      28.30230000
I       50.31520000      66.03870000      25.15760000
I       53.45990000      62.89400000      25.15760000
I       50.31520000      62.89400000      34.59170000
I       50.31520000      66.03870000      31.44700000
I       53.45990000      62.89400000      31.44700000
I       50.31520000      62.89400000      40.88110000
I       50.31520000      66.03870000      37.73640000
I       53.45990000      62.89400000      37.73640000
I       50.31520000      62.89400000      47.17050000
I       50.31520000      66.03870000      44.02580000
I       53.45990000      62.89400000      44.02580000
I       50.31520000      62.89400000      53.45990000
I       50.31520000      66.03870000      50.31520000
I       53.45990000      62.89400000      50.31520000
I       50.31520000      62.89400000      59.74930000
I       50.31520000      66.03870000      56.60460000
I       53.45990000      62.89400000      56.60460000
I       50.31520000      62.89400000      66.03870000
I       50.31520000      66.03870000      62.89400000
I       53.45990000      62.89400000      62.89400000
I       50.31520000      62.89400000      72.32810000
I       50.31520000      66.03870000      69.18340000
I       53.45990000      62.89400000      69.18340000
I       50.31520000      69.18340000       3.14470000
I       50.31520000      72.32810000       0.00000000
I       53.45990000      69.18340000       0.00000000
I       50.31520000      69.18340000       9.43410000
I       50.31520000      72.32810000       6.28940000
I       53.45990000      69.18340000       6.28940000
I       50.31520000      69.18340000      15.72350000
I       50.31520000      72.32810000      12.57880000
I       53.45990000      69.18340000      12.57880000
I       50.31520000      69.18340000      22.01290000
I       50.31520000      72.32810000      18.86820000
I       53.45990000      69.18340000      18.86820000
I       50.31520000      69.18340000      28.30230000
I       50.31520000      72.32810000      25.15760000
I       53.45990000      69.18340000      25.15760000
I       50.31520000      69.18340000      34.59170000
I       50.31520000      72.32810000      31.44700000
I       53.45990000      69.18340000      31.44700000
I       50.31520000      69.18340000      40.88110000
I       50.31520000      72.32810000      37.73640000
I       53.45990000      69.18340000      37.73640000
I       50.31520000      69.18340000      47.17050000
I       50.31520000      72.32810000      44.02580000
I       53.45990000      69.18340000      44.02580000
I       50.31520000      69.18340000      53.45990000
I       50.31520000      72.32810000      50.31520000
I       53.45990000      69.18340000      50.31520000
I       50.31520000      69.18340000      59.74930000
I       50.31520000      72.32810000      56.60460000
I       53.45990000      69.18340000      56.60460000
I       50.31520000      69.18340000      66.03870000
I       50.31520000      72.32810000      62.89400000
I       53.45990000      69.18340000      62.89400000
I       50.31520000      69.18340000      72.32810000
I       50.31520000      72.32810000      69.18340000
I       53.45990000      69.18340000      69.18340000
I       56.60460000       0.00000000       3.14470000
I       56.60460000       3.14470000       0.00000000
I       59.74930000       0.00000000       0.00000000
I       56.60460000       0.00000000       9.43410000
I       56.60460000       3.14470000       6.28940000
I       59.74930000       0.00000000       6.28940000
I       56.60460000       0.00000000      15.72350000
I       56.60460000       3.14470000      12.57880000
I       59.74930000       0.00000000      12.57880000
I       56.60460000       0.00000000      22.01290000
I       56.60460000       3.14470000      18.86820000
I       59.74930000       0.00000000      18.86820000
I       56.60460000       0.00000000      28.30230000
I       56.60460000       3.14470000      25.15760000
I       59.74930000       0.00000000      25.15760000
I       56.60460000       0.00000000      34.59170000
I       56.60460000       3.14470000      31.44700000
I       59.74930000       0.00000000      31.44700000
I       56.60460000       0.00000000      40.88110000
I       56.60460000       3.14470000      37.73640000
I       59.74930000       0.00000000      37.73640000
I       56.60460000       0.00000000      47.17050000
I       56.60460000       3.14470000      44.02580000
I       59.74930000       0.00000000      44.02580000
I       56.60460000       0.00000000      53.45990000
I       56.60460000       3.14470000      50.31520000
I       59.74930000       0.00000000      50.31520000
I       56.60460000       0.00000000      59.74930000
I       56.60460000       3.14470000      56.60460000
I       59.74930000       0.00000000      56.60460000
I       56.60460000       0.00000000      66.03870000
I       56.60460000       3.14470000      62.89400000
I       59.74930000       0.00000000      62.89400000
I       56.60460000       0.00000000      72.32810000
I       56.60460000       3.14470000      69.18340000
I       59.74930000       0.00000000      69.18340000
I       56.60460000       6.28940000       3.14470000
I       56.60460000       9.43410000       0.00000000
I       59.74930000       6.28940000       0.00000000
I       56.60460000       6.28940000       9.43410000
I       56.60460000       9.43410000       6.28940000
I       59.74930000       6.28940000       6.28940000
I       56.60460000       6.28940000      15.72350000
I       56.60460000       9.43410000      12.57880000
I       59.74930000       6.28940000      12.57880000
I       56.60460000       6.28940000      22.01290000
I       56.60460000       9.43410000      18.86820000
I       59.74930000       6.28940000      18.86820000
I       56.60460000       6.28940000      28.30230000
I       56.60460000       9.43410000      25.15760000
I       59.74930000       6.28940000      25.15760000
I       56.60460000       6.28940000      34.59170000
I       56.60460000       9.43410000      31.44700000
I       59.74930000       6.28940000      31.44700000
I       56.60460000       6.28940000      40.88110000
I       56.60460000       9.43410000      37.73640000
I       59.74930000       6.28940000      37.73640000
I       56.60460000       6.28940000      47.17050000
I       56.60460000       9.43410000      44.02580000
I       59.74930000       6.28940000      44.02580000
I       56.60460000       6.28940000      53.45990000
I       56.60460000       9.43410000      50.31520000
I       59.74930000       6.28940000      50.31520000
I       56.60460000       6.28940000      59.74930000
I       56.60460000       9.43410000      56.60460000
I       59.74930000       6.28940000      56.60460000
I       56.60460000       6.28940000      66.03870000
I       56.60460000       9.43410000      62.89400000
I       59.74930000       6.28940000      62.89400000
I       56.60460000       6.28940000      72.32810000
I       56.60460000       9.43410000      69.18340000
I       59.74930000       6.28940000      69.18340000
I       56.60460000      12.57880000       3.14470000
I       56.60460000      15.72350000       0.00000000
I       59.74930000      12.57880000       0.00000000
I       56.60460000      12.57880000       9.43410000
I       56.60460000      15.72350000       6.28940000
I       59.74930000      12.57880000       6.28940000
I       56.60460000      12.57880000      15.72350000
I       56.60460000      15.72350000      12.57880000
I       59.74930000      12.57880000      12.57880000
I       56.60460000      12.57880000      22.01290000
I       56.60460000      15.72350000      18.86820000
I       59.74930000      12.57880000      18.86820000
I       56.60460000      12.57880000      28.30230000
I       56.60460000      15.72350000      25.15760000
I       59.74930000      12.57880000      25.15760000
I       56.60460000      12.57880000      34.59170000
I       56.60460000      15.72350000      31.44700000
I       59.74930000      12.57880000      31.44700000
I       56.60460000      12.57880000      40.88110000
I       56.60460000      15.72350000      37.73640000
I       59.74930000      12.57880000      37.73640000
I       56.60460000      12.57880000      47.17050000
I       56.60460000      15.72350000      44.02580000
I       59.74930000      12.57880000      44.02580000
I       56.60460000      12.57880000      53.45990000
I       56.60460000      15.72350000      50.31520000
I       59.74930000      12.57880000      50.31520000
I       56.60460000      12.57880000      59.74930000
I       56.60460000      15.72350000      56.60460000
I       59.74930000      12.57880000      56.60460000
I       56.60460000      12.57880000      66.03870000
I       56.60460000      15.72350000      62.89400000
I       59.74930000      12.57880000      62.89400000
I       56.60460000      12.57880000      72.32810000
I       56.60460000      15.72350000      69.18340000
I       59.74930000      12.57880000      69.18340000
I       56.60460000      18.86820000       3.14470000
I       56.60460000      22.01290000       0.00000000
I       59.74930000      18.86820000       0.00000000
I       56.60460000      18.86820000       9.43410000
I       56.60460000      22.01290000       6.28940000
I       59.74930000      18.86820000       6.28940000
I       56.60460000      18.86820000      15.72350000
I       56.60460000      22.01290000      12.57880000
I       59.74930000      18.86820000      12.57880000
I       56.60460000      18.86820000      22.01290000
I       56.60460000      22.01290000      18.86820000
I       59.74930000      18.86820000      18.86820000
I       56.60460000      18.86820000      28.30230000
I       56.60460000      22.01290000      25.15760000
I       59.74930000      18.86820000      25.15760000
I       56.60460000      18.86820000      34.59170000
I       56.60460000      22.01290000      31.44700000
I       59.74930000      18.86820000      31.44700000
I       56.60460000      18.86820000      40.88110000
I       56.60460000      22.01290000      37.73640000
I       59.74930000      18.86820000      37.73640000
I       56.60460000      18.86820000      47.17050000
I       56.60460000      22.01290000      44.02580000
I       59.74930000      18.86820000      44.02580000
I       56.60460000      18.86820000      53.45990000
I       56.60460000      22.01290000      50.31520000
I       59.74930000      18.86820000      50.31520000
I       56.60460000      18.86820000      59.74930000
I       56.60460000      22.01290000      56.60460000
I       59.74930000      18.86820000      56.60460000
I       56.60460000      18.86820000      66.03870000
I       56.60460000      22.01290000      62.89400000
I       59.74930000      18.86820000      62.89400000
I       56.60460000      18.86820000      72.32810000
I       56.60460000      22.01290000      69.18340000
I       59.74930000      18.86820000      69.18340000
I       56.60460000      25.15760000       3.14470000
I       56.60460000      28.30230000       0.00000000
I       59.74930000      25.15760000       0.00000000
I       56.60460000      25.15760000       9.43410000
I       56.60460000      28.30230000       6.28940000
I       59.74930000      25.15760000       6.28940000
I       56.60460000      25.15760000      15.72350000
I       56.60460000      28.30230000      12.57880000
I       59.74930000      25.15760000      12.57880000
I       56.60460000      25.15760000      22.01290000
I       56.60460000      28.30230000      18.86820000
I       59.74930000      25.15760000      18.86820000
I       56.60460000      25.15760000      28.30230000
I       56.60460000      28.30230000      25.15760000
I       59.74930000      25.15760000      25.15760000
I       56.60460000      25.15760000      34.59170000
I       56.60460000      28.30230000      31.44700000
I       59.74930000      25.15760000      31.44700000
I       56.60460000      25.15760000      40.88110000
I       56.60460000      28.30230000      37.73640000
I       59.74930000      25.15760000      37.73640000
I       56.60460000      25.15760000      47.17050000
I       56.60460000      28.30230000      44.02580000
I       59.74930000      25.15760000      44.02580000
I       56.60460000      25.15760000      53.45990000
I       56.60460000      28.30230000      50.31520000
I       59.74930000      25.15760000      50.31520000
I       56.60460000      25.15760000      59.74930000
I       56.60460000      28.30230000      56.60460000
I       59.74930000      25.15760000      56.60460000
I       56.60460000      25.15760000      66.03870000
I       56.60460000      28.30230000      62.89400000
I       59.74930000      25.15760000      62.89400000
I       56.60460000      25.15760000      72.32810000
I       56.60460000      28.30230000      69.18340000
I       59.74930000      25.15760000      69.18340000
I       56.60460000      31.44700000       3.14470000
I       56.60460000      34.59170000       0.00000000
I       59.74930000      31.44700000       0.00000000
I       56.60460000      31.44700000       9.43410000
I       56.60460000      34.59170000       6.28940000
I       59.74930000      31.44700000       6.28940000
I       56.60460000      31.44700000      15.72350000
I       56.60460000      34.59170000      12.57880000
I       59.74930000      31.44700000      12.57880000
I       56.60460000      31.44700000      22.01290000
I       56.60460000      34.59170000      18.86820000
I       59.74930000      31.44700000      18.86820000
I       56.60460000      31.44700000      28.30230000
I       56.60460000      34.59170000      25.15760000
I       59.74930000      31.44700000      25.15760000
I       56.60460000      31.44700000      34.59170000
I       56.60460000      34.59170000      31.44700000
I       59.74930000      31.44700000      31.44700000
I       56.60460000      31.44700000      40.88110000
I       56.60460000      34.59170000      37.73640000
I       59.74930000      31.44700000      37.73640000
I       56.60460000      31.44700000      47.17050000
I       56.60460000      34.59170000      44.02580000
I       59.74930000      31.44700000      44.02580000
I       56.60460000      31.44700000      53.45990000
I       56.60460000      34.59170000      50.31520000
I       59.74930000      31.44700000      50.31520000
I       56.60460000      31.44700000      59.74930000
I       56.60460000      34.59170000      56.60460000
I       59.74930000      31.44700000      56.60460000
I       56.60460000      31.44700000      66.03870000
I       56.60460000      34.59170000      62.89400000
I       59.74930000      31.44700000      62.89400000
I       56.60460000      31.44700000      72.32810000
I       56.60460000      34.59170000      69.18340000
I       59.74930000      31.44700000      69.18340000
I       56.60460000      37.73640000       3.14470000
I       56.60460000      40.88110000       0.00000000
I       59.74930000      37.73640000       0.00000000
I       56.60460000      37.73640000       9.43410000
I       56.60460000      40.88110000       6.28940000
I       59.74930000      37.73640000       6.28940000
I       56.60460000      37.73640000      15.72350000
I       56.60460000      40.88110000      12.57880000
I       59.74930000      37.73640000      12.57880000
I       56.60460000      37.73640000      22.01290000
I       56.60460000      40.88110000      18.86820000
I       59.74930000      37.73640000      18.86820000
I       56.60460000      37.73640000      28.30230000
I       56.60460000      40.88110000      25.15760000
I       59.74930000      37.73640000      25.15760000
I       56.60460000      37.73640000      34.59170000
I       56.60460000      40.88110000      31.44700000
I       59.74930000      37.73640000      31.44700000
I       56.60460000      37.73640000      40.88110000
I       56.60460000      40.88110000      37.73640000
I       59.74930000      37.73640000      37.73640000
I       56.60460000      37.73640000      47.17050000
I       56.60460000      40.88110000      44.02580000
I       59.74930000      37.73640000      44.02580000
I       56.60460000      37.73640000      53.45990000
I       56.60460000      40.88110000      50.31520000
I       59.74930000      37.73640000      50.31520000
I       56.60460000      37.73640000      59.74930000
I       56.60460000      40.88110000      56.60460000
I       59.74930000      37.73640000      56.60460000
I       56.60460000      37.73640000      66.03870000
I       56.60460000      40.88110000      62.89400000
I       59.74930000      37.73640000      62.89400000
I       56.60460000      37.73640000      72.32810000
I       56.60460000      40.88110000      69.18340000
I       59.74930000      37.73640000      69.18340000
I       56.60460000      44.02580000       3.14470000
I       56.60460000      47.17050000       0.00000000
I       59.74930000      44.02580000       0.00000000
I       56.60460000      44.02580000       9.43410000
I       56.60460000      47.17050000       6.28940000
I       59.74930000      44.02580000       6.28940000
I       56.60460000      44.02580000      15.72350000
I       56.60460000      47.17050000      12.57880000
I       59.74930000      44.02580000      12.57880000
I       56.60460000      44.02580000      22.01290000
I       56.60460000      47.17050000      18.86820000
I       59.74930000      44.02580000      18.86820000
I       56.60460000      44.02580000      28.30230000
I       56.60460000      47.17050000      25.15760000
I       59.74930000      44.02580000      25.15760000
I       56.60460000      44.02580000      34.59170000
I       56.60460000      47.17050000      31.44700000
I       59.74930000      44.02580000      31.44700000
I       56.60460000      44.02580000      40.88110000
I       56.60460000      47.17050000      37.73640000
I       59.74930000      44.02580000      37.73640000
I       56.60460000      44.02580000      47.17050000
I       56.60460000      47.17050000      44.02580000
I       59.74930000      44.02580000      44.02580000
I       56.60460000      44.02580000      53.45990000
I       56.60460000      47.17050000      50.31520000
I       59.74930000      44.02580000      50.31520000
I       56.60460000      44.02580000      59.74930000
I       56.60460000      47.17050000      56.60460000
I       59.74930000      44.02580000      56.60460000
I       56.60460000      44.02580000      66.03870000
I       56.60460000      47.17050000      62.89400000
I       59.74930000      44.02580000      62.89400000
I       56.60460000      44.02580000      72.32810000
I       56.60460000      47.17050000      69.18340000
I       59.74930000      44.02580000      69.18340000
I       56.60460000      50.31520000       3.14470000
I       56.60460000      53.45990000       0.00000000
I       59.74930000      50.31520000       0.00000000
I       56.60460000      50.31520000       9.43410000
I       56.60460000      53.45990000       6.28940000
I       59.74930000      50.31520000       6.28940000
I       56.60460000      50.31520000      15.72350000
I       56.60460000      53.45990000      12.57880000
I       59.74930000      50.31520000      12.57880000
I       56.60460000      50.31520000      22.01290000
I       56.60460000      53.45990000      18.86820000
I       59.74930000      50.31520000      18.86820000
I       56.60460000      50.31520000      28.30230000
I       56.60460000      53.45990000      25.15760000
I       59.74930000      50.31520000      25.15760000
I       56.60460000      50.31520000      34.59170000
I       56.60460000      53.45990000      31.44700000
I       59.74930000      50.31520000      31.44700000
I       56.60460000      50.31520000      40.88110000
I       56.60460000      53.45990000      37.73640000
I       59.74930000      50.31520000      37.73640000
I       56.60460000      50.31520000      47.17050000
I       56.60460000      53.45990000      44.02580000
I       59.74930000      50.31520000      44.02580000
I       56.60460000      50.31520000      53.45990000
I       56.60460000      53.45990000      50.31520000
I       59.74930000      50.31520000      50.31520000
I       56.60460000      50.31520000      59.74930000
I       56.60460000      53.45990000      56.60460000
I       59.74930000      50.31520000      56.60460000
I       56.60460000      50.31520000      66.03870000
I       56.60460000      53.45990000      62.89400000
I       59.74930000      50.31520000      62.89400000
I       56.60460000      50.31520000      72.32810000
I       56.60460000      53.45990000      69.18340000
I       59.74930000      50.31520000      69.18340000
I       56.60460000      56.60460000       3.14470000
I       56.60460000      59.74930000       0.00000000
I       59.74930000      56.60460000       0.00000000
I       56.60460000      56.60460000       9.43410000
I       56.60460000      59.74930000       6.28940000
I       59.74930000      56.60460000       6.28940000
I       56.60460000      56.60460000      15.72350000
I       56.60460000      59.74930000      12.57880000
I       59.74930000      56.60460000      12.57880000
I       56.60460000      56.60460000      22.01290000
I       56.60460000      59.74930000      18.86820000
I       59.74930000      56.60460000      18.86820000
I       56.60460000      56.60460000      28.30230000
I       56.60460000      59.74930000      25.15760000
I       59.74930000      56.60460000      25.15760000
I       56.60460000      56.60460000      34.59170000
I       56.60460000      59.74930000      31.44700000
I       59.74930000      56.60460000      31.44700000
I       56.60460000      56.60460000      40.88110000
I       56.60460000      59.74930000      37.73640000
I       59.74930000      56.60460000      37.73640000
I       56.60460000      56.60460000      47.17050000
I       56.60460000      59.74930000      44.02580000
I       59.74930000      56.60460000      44.02580000
I       56.60460000      56.60460000      53.45990000
I       56.60460000      59.74930000      50.31520000
I       59.74930000      56.60460000      50.31520000
I       56.60460000      56.60460000      59.74930000
I       56.60460000      59.74930000      56.60460000
I       59.74930000      56.60460000      56.60460000
I       56.60460000      56.60460000      66.03870000
I       56.60460000      59.74930000      62.89400000
I       59.74930000      56.60460000      62.89400000
I       56.60460000      56.60460000      72.32810000
I       56.60460000      59.74930000      69.18340000
I       59.74930000      56.60460000      69.18340000
I       56.60460000      62.89400000       3.14470000
I       56.60460000      66.03870000       0.00000000
I       59.74930000      62.89400000       0.00000000
I       56.60460000      62.89400000       9.43410000
I       56.60460000      66.03870000       6.28940000
I       59.74930000      62.89400000       6.28940000
I       56.60460000      62.89400000      15.72350000
I       56.60460000      66.03870000      12.57880000
I       59.74930000      62.89400000      12.57880000
I       56.60460000      62.89400000      22.01290000
I       56.60460000      66.03870000      18.86820000
I       59.74930000      62.89400000      18.86820000
I       56.60460000      62.89400000      28.30230000
I       56.60460000      66.03870000      25.15760000
I       59.74930000      62.89400000      25.15760000
I       56.60460000      62.89400000      34.59170000
I       56.60460000      66.03870000      31.44700000
I       59.74930000      62.89400000      31.44700000
I       56.60460000      62.89400000      40.88110000
I       56.60460000      66.03870000      37.73640000
I       59.74930000      62.89400000      37.73640000
I       56.60460000      62.89400000      47.17050000
I       56.60460000      66.03870000      44.02580000
I       59.74930000      62.89400000      44.02580000
I       56.60460000      62.89400000      53.45990000
I       56.60460000      66.03870000      50.31520000
I       59.74930000      62.89400000      50.31520000
I       56.60460000      62.89400000      59.74930000
I       56.60460000      66.03870000      56.60460000
I       59.74930000      62.89400000      56.60460000
I       56.60460000      62.89400000      66.03870000
I       56.60460000      66.03870000      62.89400000
I       59.74930000      62.89400000      62.89400000
I       56.60460000      62.89400000      72.32810000
I       56.60460000      66.03870000      69.18340000
I       59.74930000      62.89400000      69.18340000
I       56.60460000      69.18340000       3.14470000
I       56.60460000      72.32810000       0.00000000
I       59.74930000      69.18340000       0.00000000
I       56.60460000      69.18340000       9.43410000
I       56.60460000      72.32810000       6.28940000
I       59.74930000      69.18340000       6.28940000
I       56.60460000      69.18340000      15.72350000
I       56.60460000      72.32810000      12.57880000
I       59.74930000      69.18340000      12.57880000
I       56.60460000      69.18340000      22.01290000
I       56.60460000      72.32810000      18.86820000
I       59.74930000      69.18340000      18.86820000
I       56.60460000      69.18340000      28.30230000
I       56.60460000      72.32810000      25.15760000
I       59.74930000      69.18340000      25.15760000
I       56.60460000      69.18340000      34.59170000
I       56.60460000      72.32810000      31.44700000
I       59.74930000      69.18340000      31.44700000
I       56.60460000      69.18340000      40.88110000
I       56.60460000      72.32810000      37.73640000
I       59.74930000      69.18340000      37.73640000
I       56.60460000      69.18340000      47.17050000
I       56.60460000      72.32810000      44.02580000
I       59.74930000      69.18340000      44.02580000
I       56.60460000      69.18340000      53.45990000
I       56.60460000      72.32810000      50.31520000
I       59.74930000      69.18340000      50.31520000
I       56.60460000      69.18340000      59.74930000
I       56.60460000      72.32810000      56.60460000
I       59.74930000      69.18340000      56.60460000
I       56.60460000      69.18340000      66.03870000
I       56.60460000      72.32810000      62.89400000
I       59.74930000      69.18340000      62.89400000
I       56.60460000      69.18340000      72.32810000
I       56.60460000      72.32810000      69.18340000
I       59.74930000      69.18340000      69.18340000
I       62.89400000       0.00000000       3.14470000
I       62.89400000       3.14470000       0.00000000
I       66.03870000       0.00000000       0.00000000
I       62.89400000       0.00000000       9.43410000
I       62.89400000       3.14470000       6.28940000
I       66.03870000       0.00000000       6.28940000
I       62.89400000       0.00000000      15.72350000
I       62.89400000       3.14470000      12.57880000
I       66.03870000       0.00000000      12.57880000
I       62.89400000       0.00000000      22.01290000
I       62.89400000       3.14470000      18.86820000
I       66.03870000       0.00000000      18.86820000
I       62.89400000       0.00000000      28.30230000
I       62.89400000       3.14470000      25.15760000
I       66.03870000       0.00000000      25.15760000
I       62.89400000       0.00000000      34.59170000
I       62.89400000       3.14470000      31.44700000
I       66.03870000       0.00000000      31.44700000
I       62.89400000       0.00000000      40.88110000
I       62.89400000       3.14470000      37.73640000
I       66.03870000       0.00000000      37.73640000
I       62.89400000       0.00000000      47.17050000
I       62.89400000       3.14470000      44.02580000
I       66.03870000       0.00000000      44.02580000
I       62.89400000       0.00000000      53.45990000
I       62.89400000       3.14470000      50.31520000
I       66.03870000       0.00000000      50.31520000
I       62.89400000       0.00000000      59.74930000
I       62.89400000       3.14470000      56.60460000
I       66.03870000       0.00000000      56.60460000
I       62.89400000       0.00000000      66.03870000
I       62.89400000       3.14470000      62.89400000
I       66.03870000       0.00000000      62.89400000
I       62.89400000       0.00000000      72.32810000
I       62.89400000       3.14470000      69.18340000
I       66.03870000       0.00000000      69.18340000
I       62.89400000       6.28940000       3.14470000
I       62.89400000       9.43410000       0.00000000
I       66.03870000       6.28940000       0.00000000
I       62.89400000       6.28940000       9.43410000
I       62.89400000       9.43410000       6.28940000
I       66.03870000       6.28940000       6.28940000
I       62.89400000       6.28940000      15.72350000
I       62.89400000       9.43410000      12.57880000
I       66.03870000       6.28940000      12.57880000
I       62.89400000       6.28940000      22.01290000
I       62.89400000       9.43410000      18.86820000
I       66.03870000       6.28940000      18.86820000
I       62.89400000       6.28940000      28.30230000
I       62.89400000       9.43410000      25.15760000
I       66.03870000       6.28940000      25.15760000
I       62.89400000       6.28940000      34.59170000
I       62.89400000       9.43410000      31.44700000
I       66.03870000       6.28940000      31.44700000
I       62.89400000       6.28940000      40.88110000
I       62.89400000       9.43410000      37.73640000
I       66.03870000       6.28940000      37.73640000
I       62.89400000       6.28940000      47.17050000
I       62.89400000       9.43410000      44.02580000
I       66.03870000       6.28940000      44.02580000
I       62.89400000       6.28940000      53.45990000
I       62.89400000       9.43410000      50.31520000
I       66.03870000       6.28940000      50.31520000
I       62.89400000       6.28940000      59.74930000
I       62.89400000       9.43410000      56.60460000
I       66.03870000       6.28940000      56.60460000
I       62.89400000       6.28940000      66.03870000
I       62.89400000       9.43410000      62.89400000
I       66.03870000       6.28940000      62.89400000
I       62.89400000       6.28940000      72.32810000
I       62.89400000       9.43410000      69.18340000
I       66.03870000       6.28940000      69.18340000
I       62.89400000      12.57880000       3.14470000
I       62.89400000      15.72350000       0.00000000
I       66.03870000      12.57880000       0.00000000
I       62.89400000      12.57880000       9.43410000
I       62.89400000      15.72350000       6.28940000
I       66.03870000      12.57880000       6.28940000
I       62.89400000      12.57880000      15.72350000
I       62.89400000      15.72350000      12.57880000
I       66.03870000      12.57880000      12.57880000
I       62.89400000      12.57880000      22.01290000
I       62.89400000      15.72350000      18.86820000
I       66.03870000      12.57880000      18.86820000
I       62.89400000      12.57880000      28.30230000
I       62.89400000      15.72350000      25.15760000
I       66.03870000      12.57880000      25.15760000
I       62.89400000      12.57880000      34.59170000
I       62.89400000      15.72350000      31.44700000
I       66.03870000      12.57880000      31.44700000
I       62.89400000      12.57880000      40.88110000
I       62.89400000      15.72350000      37.73640000
I       66.03870000      12.57880000      37.73640000
I       62.89400000      12.57880000      47.17050000
I       62.89400000      15.72350000      44.02580000
I       66.03870000      12.57880000      44.02580000
I       62.89400000      12.57880000      53.45990000
I       62.89400000      15.72350000      50.31520000
I       66.03870000      12.57880000      50.31520000
I       62.89400000      12.57880000      59.74930000
I       62.89400000      15.72350000      56.60460000
I       66.03870000      12.57880000      56.60460000
I       62.89400000      12.57880000      66.03870000
I       62.89400000      15.72350000      62.89400000
I       66.03870000      12.57880000      62.89400000
I       62.89400000      12.57880000      72.32810000
I       62.89400000      15.72350000      69.18340000
I       66.03870000      12.57880000      69.18340000
I       62.89400000      18.86820000       3.14470000
I       62.89400000      22.01290000       0.00000000
I       66.03870000      18.86820000       0.00000000
I       62.89400000      18.86820000       9.43410000
I       62.89400000      22.01290000       6.28940000
I       66.03870000      18.86820000       6.28940000
I       62.89400000      18.86820000      15.72350000
I       62.89400000      22.01290000      12.57880000
I       66.03870000      18.86820000      12.57880000
I       62.89400000      18.86820000      22.01290000
I       62.89400000      22.01290000      18.86820000
I       66.03870000      18.86820000      18.86820000
I       62.89400000      18.86820000      28.30230000
I       62.89400000      22.01290000      25.15760000
I       66.03870000      18.86820000      25.15760000
I       62.89400000      18.86820000      34.59170000
I       62.89400000      22.01290000      31.44700000
I       66.03870000      18.86820000      31.44700000
I       62.89400000      18.86820000      40.88110000
I       62.89400000      22.01290000      37.73640000
I       66.03870000      18.86820000      37.73640000
I       62.89400000      18.86820000      47.17050000
I       62.89400000      22.01290000      44.02580000
I       66.03870000      18.86820000      44.02580000
I       62.89400000      18.86820000      53.45990000
I       62.89400000      22.01290000      50.31520000
I       66.03870000      18.86820000      50.31520000
I       62.89400000      18.86820000      59.74930000
I       62.89400000      22.01290000      56.60460000
I       66.03870000      18.86820000      56.60460000
I       62.89400000      18.86820000      66.03870000
I       62.89400000      22.01290000      62.89400000
I       66.03870000      18.86820000      62.89400000
I       62.89400000      18.86820000      72.32810000
I       62.89400000      22.01290000      69.18340000
I       66.03870000      18.86820000      69.18340000
I       62.89400000      25.15760000       3.14470000
I       62.89400000      28.30230000       0.00000000
I       66.03870000      25.15760000       0.00000000
I       62.89400000      25.15760000       9.43410000
I       62.89400000      28.30230000       6.28940000
I       66.03870000      25.15760000       6.28940000
I       62.89400000      25.15760000      15.72350000
I       62.89400000      28.30230000      12.57880000
I       66.03870000      25.15760000      12.57880000
I       62.89400000      25.15760000      22.01290000
I       62.89400000      28.30230000      18.86820000
I       66.03870000      25.15760000      18.86820000
I       62.89400000      25.15760000      28.30230000
I       62.89400000      28.30230000      25.15760000
I       66.03870000      25.15760000      25.15760000
I       62.89400000      25.15760000      34.59170000
I       62.89400000      28.30230000      31.44700000
I       66.03870000      25.15760000      31.44700000
I       62.89400000      25.15760000      40.88110000
I       62.89400000      28.30230000      37.73640000
I       66.03870000      25.15760000      37.73640000
I       62.89400000      25.15760000      47.17050000
I       62.89400000      28.30230000      44.02580000
I       66.03870000      25.15760000      44.02580000
I       62.89400000      25.15760000      53.45990000
I       62.89400000      28.30230000      50.31520000
I       66.03870000      25.15760000      50.31520000
I       62.89400000      25.15760000      59.74930000
I       62.89400000      28.30230000      56.60460000
I       66.03870000      25.15760000      56.60460000
I       62.89400000      25.15760000      66.03870000
I       62.89400000      28.30230000      62.89400000
I       66.03870000      25.15760000      62.89400000
I       62.89400000      25.15760000      72.32810000
I       62.89400000      28.30230000      69.18340000
I       66.03870000      25.15760000      69.18340000
I       62.89400000      31.44700000       3.14470000
I       62.89400000      34.59170000       0.00000000
I       66.03870000      31.44700000       0.00000000
I       62.89400000      31.44700000       9.43410000
I       62.89400000      34.59170000       6.28940000
I       66.03870000      31.44700000       6.28940000
I       62.89400000      31.44700000      15.72350000
I       62.89400000      34.59170000      12.57880000
I       66.03870000      31.44700000      12.57880000
I       62.89400000      31.44700000      22.01290000
I       62.89400000      34.59170000      18.86820000
I       66.03870000      31.44700000      18.86820000
I       62.89400000      31.44700000      28.30230000
I       62.89400000      34.59170000      25.15760000
I       66.03870000      31.44700000      25.15760000
I       62.89400000      31.44700000      34.59170000
I       62.89400000      34.59170000      31.44700000
I       66.03870000      31.44700000      31.44700000
I       62.89400000      31.44700000      40.88110000
I       62.89400000      34.59170000      37.73640000
I       66.03870000      31.44700000      37.73640000
I       62.89400000      31.44700000      47.17050000
I       62.89400000      34.59170000      44.02580000
I       66.03870000      31.44700000      44.02580000
I       62.89400000      31.44700000      53.45990000
I       62.89400000      34.59170000      50.31520000
I       66.03870000      31.44700000      50.31520000
I       62.89400000      31.44700000      59.74930000
I       62.89400000      34.59170000      56.60460000
I       66.03870000      31.44700000      56.60460000
I       62.89400000      31.44700000      66.03870000
I       62.89400000      34.59170000      62.89400000
I       66.03870000      31.44700000      62.89400000
I       62.89400000      31.44700000      72.32810000
I       62.89400000      34.59170000      69.18340000
I       66.03870000      31.44700000      69.18340000
I       62.89400000      37.73640000       3.14470000
I       62.89400000      40.88110000       0.00000000
I       66.03870000      37.73640000       0.00000000
I       62.89400000      37.73640000       9.43410000
I       62.89400000      40.88110000       6.28940000
I       66.03870000      37.73640000       6.28940000
I       62.89400000      37.73640000      15.72350000
I       62.89400000      40.88110000      12.57880000
I       66.03870000      37.73640000      12.57880000
I       62.89400000      37.73640000      22.01290000
I       62.89400000      40.88110000      18.86820000
I       66.03870000      37.73640000      18.86820000
I       62.89400000      37.73640000      28.30230000
I       62.89400000      40.88110000      25.15760000
I       66.03870000      37.73640000      25.15760000
I       62.89400000      37.73640000      34.59170000
I       62.89400000      40.88110000      31.44700000
I       66.03870000      37.73640000      31.44700000
I       62.89400000      37.73640000      40.88110000
I       62.89400000      40.88110000      37.73640000
I       66.03870000      37.73640000      37.73640000
I       62.89400000      37.73640000      47.17050000
I       62.89400000      40.88110000      44.02580000
I       66.03870000      37.73640000      44.02580000
I       62.89400000      37.73640000      53.45990000
I       62.89400000      40.88110000      50.31520000
I       66.03870000      37.73640000      50.31520000
I       62.89400000      37.73640000      59.74930000
I       62.89400000      40.88110000      56.60460000
I       66.03870000      37.73640000      56.60460000
I       62.89400000      37.73640000      66.03870000
I       62.89400000      40.88110000      62.89400000
I       66.03870000      37.73640000      62.89400000
I       62.89400000      37.73640000      72.32810000
I       62.89400000      40.88110000      69.18340000
I       66.03870000      37.73640000      69.18340000
I       62.89400000      44.02580000       3.14470000
I       62.89400000      47.17050000       0.00000000
I       66.03870000      44.02580000       0.00000000
I       62.89400000      44.02580000       9.43410000
I       62.89400000      47.17050000       6.28940000
I       66.03870000      44.02580000       6.28940000
I       62.89400000      44.02580000      15.72350000
I       62.89400000      47.17050000      12.57880000
I       66.03870000      44.02580000      12.57880000
I       62.89400000      44.02580000      22.01290000
I       62.89400000      47.17050000      18.86820000
I       66.03870000      44.02580000      18.86820000
I       62.89400000      44.02580000      28.30230000
I       62.89400000      47.17050000      25.15760000
I       66.03870000      44.02580000      25.15760000
I       62.89400000      44.02580000      34.59170000
I       62.89400000      47.17050000      31.44700000
I       66.03870000      44.02580000      31.44700000
I       62.89400000      44.02580000      40.88110000
I       62.89400000      47.17050000      37.73640000
I       66.03870000      44.02580000      37.73640000
I       62.89400000      44.02580000      47.17050000
I       62.89400000      47.17050000      44.02580000
I       66.03870000      44.02580000      44.02580000
I       62.89400000      44.02580000      53.45990000
I       62.89400000      47.17050000      50.31520000
I       66.03870000      44.02580000      50.31520000
I       62.89400000      44.02580000      59.74930000
I       62.89400000      47.17050000      56.60460000
I       66.03870000      44.02580000      56.60460000
I       62.89400000      44.02580000      66.03870000
I       62.89400000      47.17050000      62.89400000
I       66.03870000      44.02580000      62.89400000
I       62.89400000      44.02580000      72.32810000
I       62.89400000      47.17050000      69.18340000
I       66.03870000      44.02580000      69.18340000
I       62.89400000      50.31520000       3.14470000
I       62.89400000      53.45990000       0.00000000
I       66.03870000      50.31520000       0.00000000
I       62.89400000      50.31520000       9.43410000
I       62.89400000      53.45990000       6.28940000
I       66.03870000      50.31520000       6.28940000
I       62.89400000      50.31520000      15.72350000
I       62.89400000      53.45990000      12.57880000
I       66.03870000      50.31520000      12.57880000
I       62.89400000      50.31520000      22.01290000
I       62.89400000      53.45990000      18.86820000
I       66.03870000      50.31520000      18.86820000
I       62.89400000      50.31520000      28.30230000
I       62.89400000      53.45990000      25.15760000
I       66.03870000      50.31520000      25.15760000
I       62.89400000      50.31520000      34.59170000
I       62.89400000      53.45990000      31.44700000
I       66.03870000      50.31520000      31.44700000
I       62.89400000      50.31520000      40.88110000
I       62.89400000      53.45990000      37.73640000
I       66.03870000      50.31520000      37.73640000
I       62.89400000      50.31520000      47.17050000
I       62.89400000      53.45990000      44.02580000
I       66.03870000      50.31520000      44.02580000
I       62.89400000      50.31520000      53.45990000
I       62.89400000      53.45990000      50.31520000
I       66.03870000      50.31520000      50.31520000
I       62.89400000      50.31520000      59.74930000
I       62.89400000      53.45990000      56.60460000
I       66.03870000      50.31520000      56.60460000
I       62.89400000      50.31520000      66.03870000
I       62.89400000      53.45990000      62.89400000
I       66.03870000      50.31520000      62.89400000
I       62.89400000      50.31520000      72.32810000
I       62.89400000      53.45990000      69.18340000
I       66.03870000      50.31520000      69.18340000
I       62.89400000      56.60460000       3.14470000
I       62.89400000      59.74930000       0.00000000
I       66.03870000      56.60460000       0.00000000
I       62.89400000      56.60460000       9.43410000
I       62.89400000      59.74930000       6.28940000
I       66.03870000      56.60460000       6.28940000
I       62.89400000      56.60460000      15.72350000
I       62.89400000      59.74930000      12.57880000
I       66.03870000      56.60460000      12.57880000
I       62.89400000      56.60460000      22.01290000
I       62.89400000      59.74930000      18.86820000
I       66.03870000      56.60460000      18.86820000
I       62.89400000      56.60460000      28.30230000
I       62.89400000      59.74930000      25.15760000
I       66.03870000      56.60460000      25.15760000
I       62.89400000      56.60460000      34.59170000
I       62.89400000      59.74930000      31.44700000
I       66.03870000      56.60460000      31.44700000
I       62.89400000      56.60460000      40.88110000
I       62.89400000      59.74930000      37.73640000
I       66.03870000      56.60460000      37.73640000
I       62.89400000      56.60460000      47.17050000
I       62.89400000      59.74930000      44.02580000
I       66.03870000      56.60460000      44.02580000
I       62.89400000      56.60460000      53.45990000
I       62.89400000      59.74930000      50.31520000
I       66.03870000      56.60460000      50.31520000
I       62.89400000      56.60460000      59.74930000
I       62.89400000      59.74930000      56.60460000
I       66.03870000      56.60460000      56.60460000
I       62.89400000      56.60460000      66.03870000
I       62.89400000      59.74930000      62.89400000
I       66.03870000      56.60460000      62.89400000
I       62.89400000      56.60460000      72.32810000
I       62.89400000      59.74930000      69.18340000
I       66.03870000      56.60460000      69.18340000
I       62.89400000      62.89400000       3.14470000
I       62.89400000      66.03870000       0.00000000
I       66.03870000      62.89400000       0.00000000
I       62.89400000      62.89400000       9.43410000
I       62.89400000      66.03870000       6.28940000
I       66.03870000      62.89400000       6.28940000
I       62.89400000      62.89400000      15.72350000
I       62.89400000      66.03870000      12.57880000
I       66.03870000      62.89400000      12.57880000
I       62.89400000      62.89400000      22.01290000
I       62.89400000      66.03870000      18.86820000
I       66.03870000      62.89400000      18.86820000
I       62.89400000      62.89400000      28.30230000
I       62.89400000      66.03870000      25.15760000
I       66.03870000      62.89400000      25.15760000
I       62.89400000      62.89400000      34.59170000
I       62.89400000      66.03870000      31.44700000
I       66.03870000      62.89400000      31.44700000
I       62.89400000      62.89400000      40.88110000
I       62.89400000      66.03870000      37.73640000
I       66.03870000      62.89400000      37.73640000
I       62.89400000      62.89400000      47.17050000
I       62.89400000      66.03870000      44.02580000
I       66.03870000      62.89400000      44.02580000
I       62.89400000      62.89400000      53.45990000
I       62.89400000      66.03870000      50.31520000
I       66.03870000      62.89400000      50.31520000
I       62.89400000      62.89400000      59.74930000
I       62.89400000      66.03870000      56.60460000
I       66.03870000      62.89400000      56.60460000
I       62.89400000      62.89400000      66.03870000
I       62.89400000      66.03870000      62.89400000
I       66.03870000      62.89400000      62.89400000
I       62.89400000      62.89400000      72.32810000
I       62.89400000      66.03870000      69.18340000
I       66.03870000      62.89400000      69.18340000
I       62.89400000      69.18340000       3.14470000
I       62.89400000      72.32810000       0.00000000
I       66.03870000      69.18340000       0.00000000
I       62.89400000      69.18340000       9.43410000
I       62.89400000      72.32810000       6.28940000
I       66.03870000      69.18340000       6.28940000
I       62.89400000      69.18340000      15.72350000
I       62.89400000      72.32810000      12.57880000
I       66.03870000      69.18340000      12.57880000
I       62.89400000      69.18340000      22.01290000
I       62.89400000      72.32810000      18.86820000
I       66.03870000      69.18340000      18.86820000
I       62.89400000      69.18340000      28.30230000
I       62.89400000      72.32810000      25.15760000
I       66.03870000      69.18340000      25.15760000
I       62.89400000      69.18340000      34.59170000
I       62.89400000      72.32810000      31.44700000
I       66.03870000      69.18340000      31.44700000
I       62.89400000      69.18340000      40.88110000
I       62.89400000      72.32810000      37.73640000
I       66.03870000      69.18340000      37.73640000
I       62.89400000      69.18340000      47.17050000
I       62.89400000      72.32810000      44.02580000
I       66.03870000      69.18340000      44.02580000
I       62.89400000      69.18340000      53.45990000
I       62.89400000      72.32810000      50.31520000
I       66.03870000      69.18340000      50.31520000
I       62.89400000      69.18340000      59.74930000
I       62.89400000      72.32810000      56.60460000
I       66.03870000      69.18340000      56.60460000
I       62.89400000      69.18340000      66.03870000
I       62.89400000      72.32810000      62.89400000
I       66.03870000      69.18340000      62.89400000
I       62.89400000      69.18340000      72.32810000
I       62.89400000      72.32810000      69.18340000
I       66.03870000      69.18340000      69.18340000
I       69.18340000       0.00000000       3.14470000
I       69.18340000       3.14470000       0.00000000
I       72.32810000       0.00000000       0.00000000
I       69.18340000       0.00000000       9.43410000
I       69.18340000       3.14470000       6.28940000
I       72.32810000       0.00000000       6.28940000
I       69.18340000       0.00000000      15.72350000
I       69.18340000       3.14470000      12.57880000
I       72.32810000       0.00000000      12.57880000
I       69.18340000       0.00000000      22.01290000
I       69.18340000       3.14470000      18.86820000
I       72.32810000       0.00000000      18.86820000
I       69.18340000       0.00000000      28.30230000
I       69.18340000       3.14470000      25.15760000
I       72.32810000       0.00000000      25.15760000
I       69.18340000       0.00000000      34.59170000
I       69.18340000       3.14470000      31.44700000
I       72.32810000       0.00000000      31.44700000
I       69.18340000       0.00000000      40.88110000
I       69.18340000       3.14470000      37.73640000
I       72.32810000       0.00000000      37.73640000
I       69.18340000       0.00000000      47.17050000
I       69.18340000       3.14470000      44.02580000
I       72.32810000       0.00000000      44.02580000
I       69.18340000       0.00000000      53.45990000
I       69.18340000       3.14470000      50.31520000
I       72.32810000       0.00000000      50.31520000
I       69.18340000       0.00000000      59.74930000
I       69.18340000       3.14470000      56.60460000
I       72.32810000       0.00000000      56.60460000
I       69.18340000       0.00000000      66.03870000
I       69.18340000       3.14470000      62.89400000
I       72.32810000       0.00000000      62.89400000
I       69.18340000       0.00000000      72.32810000
I       69.18340000       3.14470000      69.18340000
I       72.32810000       0.00000000      69.18340000
I       69.18340000       6.28940000       3.14470000
I       69.18340000       9.43410000       0.00000000
I       72.32810000       6.28940000       0.00000000
I       69.18340000       6.28940000       9.43410000
I       69.18340000       9.43410000       6.28940000
I       72.32810000       6.28940000       6.28940000
I       69.18340000       6.28940000      15.72350000
I       69.18340000       9.43410000      12.57880000
I       72.32810000       6.28940000      12.57880000
I       69.18340000       6.28940000      22.01290000
I       69.18340000       9.43410000      18.86820000
I       72.32810000       6.28940000      18.86820000
I       69.18340000       6.28940000      28.30230000
I       69.18340000       9.43410000      25.15760000
I       72.32810000       6.28940000      25.15760000
I       69.18340000       6.28940000      34.59170000
I       69.18340000       9.43410000      31.44700000
I       72.32810000       6.28940000      31.44700000
I       69.18340000       6.28940000      40.88110000
I       69.18340000       9.43410000      37.73640000
I       72.32810000       6.28940000      37.73640000
I       69.18340000       6.28940000      47.17050000
I       69.18340000       9.43410000      44.02580000
I       72.32810000       6.28940000      44.02580000
I       69.18340000       6.28940000      53.45990000
I       69.18340000       9.43410000      50.31520000
I       72.32810000       6.28940000      50.31520000
I       69.18340000       6.28940000      59.74930000
I       69.18340000       9.43410000      56.60460000
I       72.32810000       6.28940000      56.60460000
I       69.18340000       6.28940000      66.03870000
I       69.18340000       9.43410000      62.89400000
I       72.32810000       6.28940000      62.89400000
I       69.18340000       6.28940000      72.32810000
I       69.18340000       9.43410000      69.18340000
I       72.32810000       6.28940000      69.18340000
I       69.18340000      12.57880000       3.14470000
I       69.18340000      15.72350000       0.00000000
I       72.32810000      12.57880000       0.00000000
I       69.18340000      12.57880000       9.43410000
I       69.18340000      15.72350000       6.28940000
I       72.32810000      12.57880000       6.28940000
I       69.18340000      12.57880000      15.72350000
I       69.18340000      15.72350000      12.57880000
I       72.32810000      12.57880000      12.57880000
I       69.18340000      12.57880000      22.01290000
I       69.18340000      15.72350000      18.86820000
I       72.32810000      12.57880000      18.86820000
I       69.18340000      12.57880000      28.30230000
I       69.18340000      15.72350000      25.15760000
I       72.32810000      12.57880000      25.15760000
I       69.18340000      12.57880000      34.59170000
I       69.18340000      15.72350000      31.44700000
I       72.32810000      12.57880000      31.44700000
I       69.18340000      12.57880000      40.88110000
I       69.18340000      15.72350000      37.73640000
I       72.32810000      12.57880000      37.73640000
I       69.18340000      12.57880000      47.17050000
I       69.18340000      15.72350000      44.02580000
I       72.32810000      12.57880000      44.02580000
I       69.18340000      12.57880000      53.45990000
I       69.18340000      15.72350000      50.31520000
I       72.32810000      12.57880000      50.31520000
I       69.18340000      12.57880000      59.74930000
I       69.18340000      15.72350000      56.60460000
I       72.32810000      12.57880000      56.60460000
I       69.18340000      12.57880000      66.03870000
I       69.18340000      15.72350000      62.89400000
I       72.32810000      12.57880000      62.89400000
I       69.18340000      12.57880000      72.32810000
I       69.18340000      15.72350000      69.18340000
I       72.32810000      12.57880000      69.18340000
I       69.18340000      18.86820000       3.14470000
I       69.18340000      22.01290000       0.00000000
I       72.32810000      18.86820000       0.00000000
I       69.18340000      18.86820000       9.43410000
I       69.18340000      22.01290000       6.28940000
I       72.32810000      18.86820000       6.28940000
I       69.18340000      18.86820000      15.72350000
I       69.18340000      22.01290000      12.57880000
I       72.32810000      18.86820000      12.57880000
I       69.18340000      18.86820000      22.01290000
I       69.18340000      22.01290000      18.86820000
I       72.32810000      18.86820000      18.86820000
I       69.18340000      18.86820000      28.30230000
I       69.18340000      22.01290000      25.15760000
I       72.32810000      18.86820000      25.15760000
I       69.18340000      18.86820000      34.59170000
I       69.18340000      22.01290000      31.44700000
I       72.32810000      18.86820000      31.44700000
I       69.18340000      18.86820000      40.88110000
I       69.18340000      22.01290000      37.73640000
I       72.32810000      18.86820000      37.73640000
I       69.18340000      18.86820000      47.17050000
I       69.18340000      22.01290000      44.02580000
I       72.32810000      18.86820000      44.02580000
I       69.18340000      18.86820000      53.45990000
I       69.18340000      22.01290000      50.31520000
I       72.32810000      18.86820000      50.31520000
I       69.18340000      18.86820000      59.74930000
I       69.18340000      22.01290000      56.60460000
I       72.32810000      18.86820000      56.60460000
I       69.18340000      18.86820000      66.03870000
I       69.18340000      22.01290000      62.89400000
I       72.32810000      18.86820000      62.89400000
I       69.18340000      18.86820000      72.32810000
I       69.18340000      22.01290000      69.18340000
I       72.32810000      18.86820000      69.18340000
I       69.18340000      25.15760000       3.14470000
I       69.18340000      28.30230000       0.00000000
I       72.32810000      25.15760000       0.00000000
I       69.18340000      25.15760000       9.43410000
I       69.18340000      28.30230000       6.28940000
I       72.32810000      25.15760000       6.28940000
I       69.18340000      25.15760000      15.72350000
I       69.18340000      28.30230000      12.57880000
I       72.32810000      25.15760000      12.57880000
I       69.18340000      25.15760000      22.01290000
I       69.18340000      28.30230000      18.86820000
I       72.32810000      25.15760000      18.86820000
I       69.18340000      25.15760000      28.30230000
I       69.18340000      28.30230000      25.15760000
I       72.32810000      25.15760000      25.15760000
I       69.18340000      25.15760000      34.59170000
I       69.18340000      28.30230000      31.44700000
I       72.32810000      25.15760000      31.44700000
I       69.18340000      25.15760000      40.88110000
I       69.18340000      28.30230000      37.73640000
I       72.32810000      25.15760000      37.73640000
I       69.18340000      25.15760000      47.17050000
I       69.18340000      28.30230000      44.02580000
I       72.32810000      25.15760000      44.02580000
I       69.18340000      25.15760000      53.45990000
I       69.18340000      28.30230000      50.31520000
I       72.32810000      25.15760000      50.31520000
I       69.18340000      25.15760000      59.74930000
I       69.18340000      28.30230000      56.60460000
I       72.32810000      25.15760000      56.60460000
I       69.18340000      25.15760000      66.03870000
I       69.18340000      28.30230000      62.89400000
I       72.32810000      25.15760000      62.89400000
I       69.18340000      25.15760000      72.32810000
I       69.18340000      28.30230000      69.18340000
I       72.32810000      25.15760000      69.18340000
I       69.18340000      31.44700000       3.14470000
I       69.18340000      34.59170000       0.00000000
I       72.32810000      31.44700000       0.00000000
I       69.18340000      31.44700000       9.43410000
I       69.18340000      34.59170000       6.28940000
I       72.32810000      31.44700000       6.28940000
I       69.18340000      31.44700000      15.72350000
I       69.18340000      34.59170000      12.57880000
I       72.32810000      31.44700000      12.57880000
I       69.18340000      31.44700000      22.01290000
I       69.18340000      34.59170000      18.86820000
I       72.32810000      31.44700000      18.86820000
I       69.18340000      31.44700000      28.30230000
I       69.18340000      34.59170000      25.15760000
I       72.32810000      31.44700000      25.15760000
I       69.18340000      31.44700000      34.59170000
I       69.18340000      34.59170000      31.44700000
I       72.32810000      31.44700000      31.44700000
I       69.18340000      31.44700000      40.88110000
I       69.18340000      34.59170000      37.73640000
I       72.32810000      31.44700000      37.73640000
I       69.18340000      31.44700000      47.17050000
I       69.18340000      34.59170000      44.02580000
I       72.32810000      31.44700000      44.02580000
I       69.18340000      31.44700000      53.45990000
I       69.18340000      34.59170000      50.31520000
I       72.32810000      31.44700000      50.31520000
I       69.18340000      31.44700000      59.74930000
I       69.18340000      34.59170000      56.60460000
I       72.32810000      31.44700000      56.60460000
I       69.18340000      31.44700000      66.03870000
I       69.18340000      34.59170000      62.89400000
I       72.32810000      31.44700000      62.89400000
I       69.18340000      31.44700000      72.32810000
I       69.18340000      34.59170000      69.18340000
I       72.32810000      31.44700000      69.18340000
I       69.18340000      37.73640000       3.14470000
I       69.18340000      40.88110000       0.00000000
I       72.32810000      37.73640000       0.00000000
I       69.18340000      37.73640000       9.43410000
I       69.18340000      40.88110000       6.28940000
I       72.32810000      37.73640000       6.28940000
I       69.18340000      37.73640000      15.72350000
I       69.18340000      40.88110000      12.57880000
I       72.32810000      37.73640000      12.57880000
I       69.18340000      37.73640000      22.01290000
I       69.18340000      40.88110000      18.86820000
I       72.32810000      37.73640000      18.86820000
I       69.18340000      37.73640000      28.30230000
I       69.18340000      40.88110000      25.15760000
I       72.32810000      37.73640000      25.15760000
I       69.18340000      37.73640000      34.59170000
I       69.18340000      40.88110000      31.44700000
I       72.32810000      37.73640000      31.44700000
I       69.18340000      37.73640000      40.88110000
I       69.18340000      40.88110000      37.73640000
I       72.32810000      37.73640000      37.73640000
I       69.18340000      37.73640000      47.17050000
I       69.18340000      40.88110000      44.02580000
I       72.32810000      37.73640000      44.02580000
I       69.18340000      37.73640000      53.45990000
I       69.18340000      40.88110000      50.31520000
I       72.32810000      37.73640000      50.31520000
I       69.18340000      37.73640000      59.74930000
I       69.18340000      40.88110000      56.60460000
I       72.32810000      37.73640000      56.60460000
I       69.18340000      37.73640000      66.03870000
I       69.18340000      40.88110000      62.89400000
I       72.32810000      37.73640000      62.89400000
I       69.18340000      37.73640000      72.32810000
I       69.18340000      40.88110000      69.18340000
I       72.32810000      37.73640000      69.18340000
I       69.18340000      44.02580000       3.14470000
I       69.18340000      47.17050000       0.00000000
I       72.32810000      44.02580000       0.00000000
I       69.18340000      44.02580000       9.43410000
I       69.18340000      47.17050000       6.28940000
I       72.32810000      44.02580000       6.28940000
I       69.18340000      44.02580000      15.72350000
I       69.18340000      47.17050000      12.57880000
I       72.32810000      44.02580000      12.57880000
I       69.18340000      44.02580000      22.01290000
I       69.18340000      47.17050000      18.86820000
I       72.32810000      44.02580000      18.86820000
I       69.18340000      44.02580000      28.30230000
I       69.18340000      47.17050000      25.15760000
I       72.32810000      44.02580000      25.15760000
I       69.18340000      44.02580000      34.59170000
I       69.18340000      47.17050000      31.44700000
I       72.32810000      44.02580000      31.44700000
I       69.18340000      44.02580000      40.88110000
I       69.18340000      47.17050000      37.73640000
I       72.32810000      44.02580000      37.73640000
I       69.18340000      44.02580000      47.17050000
I       69.18340000      47.17050000      44.02580000
I       72.32810000      44.02580000      44.02580000
I       69.18340000      44.02580000      53.45990000
I       69.18340000      47.17050000      50.31520000
I       72.32810000      44.02580000      50.31520000
I       69.18340000      44.02580000      59.74930000
I       69.18340000      47.17050000      56.60460000
I       72.32810000      44.02580000      56.60460000
I       69.18340000      44.02580000      66.03870000
I       69.18340000      47.17050000      62.89400000
I       72.32810000      44.02580000      62.89400000
I       69.18340000      44.02580000      72.32810000
I       69.18340000      47.17050000      69.18340000
I       72.32810000      44.02580000      69.18340000
I       69.18340000      50.31520000       3.14470000
I       69.18340000      53.45990000       0.00000000
I       72.32810000      50.31520000       0.00000000
I       69.18340000      50.31520000       9.43410000
I       69.18340000      53.45990000       6.28940000
I       72.32810000      50.31520000       6.28940000
I       69.18340000      50.31520000      15.72350000
I       69.18340000      53.45990000      12.57880000
I       72.32810000      50.31520000      12.57880000
I       69.18340000      50.31520000      22.01290000
I       69.18340000      53.45990000      18.86820000
I       72.32810000      50.31520000      18.86820000
I       69.18340000      50.31520000      28.30230000
I       69.18340000      53.45990000      25.15760000
I       72.32810000      50.31520000      25.15760000
I       69.18340000      50.31520000      34.59170000
I       69.18340000      53.45990000      31.44700000
I       72.32810000      50.31520000      31.44700000
I       69.18340000      50.31520000      40.88110000
I       69.18340000      53.45990000      37.73640000
I       72.32810000      50.31520000      37.73640000
I       69.18340000      50.31520000      47.17050000
I       69.18340000      53.45990000      44.02580000
I       72.32810000      50.31520000      44.02580000
I       69.18340000      50.31520000      53.45990000
I       69.18340000      53.45990000      50.31520000
I       72.32810000      50.31520000      50.31520000
I       69.18340000      50.31520000      59.74930000
I       69.18340000      53.45990000      56.60460000
I       72.32810000      50.31520000      56.60460000
I       69.18340000      50.31520000      66.03870000
I       69.18340000      53.45990000      62.89400000
I       72.32810000      50.31520000      62.89400000
I       69.18340000      50.31520000      72.32810000
I       69.18340000      53.45990000      69.18340000
I       72.32810000      50.31520000      69.18340000
I       69.18340000      56.60460000       3.14470000
I       69.18340000      59.74930000       0.00000000
I       72.32810000      56.60460000       0.00000000
I       69.18340000      56.60460000       9.43410000
I       69.18340000      59.74930000       6.28940000
I       72.32810000      56.60460000       6.28940000
I       69.18340000      56.60460000      15.72350000
I       69.18340000      59.74930000      12.57880000
I       72.32810000      56.60460000      12.57880000
I       69.18340000      56.60460000      22.01290000
I       69.18340000      59.74930000      18.86820000
I       72.32810000      56.60460000      18.86820000
I       69.18340000      56.60460000      28.30230000
I       69.18340000      59.74930000      25.15760000
I       72.32810000      56.60460000      25.15760000
I       69.18340000      56.60460000      34.59170000
I       69.18340000      59.74930000      31.44700000
I       72.32810000      56.60460000      31.44700000
I       69.18340000      56.60460000      40.88110000
I       69.18340000      59.74930000      37.73640000
I       72.32810000      56.60460000      37.73640000
I       69.18340000      56.60460000      47.17050000
I       69.18340000      59.74930000      44.02580000
I       72.32810000      56.60460000      44.02580000
I       69.18340000      56.60460000      53.45990000
I       69.18340000      59.74930000      50.31520000
I       72.32810000      56.60460000      50.31520000
I       69.18340000      56.60460000      59.74930000
I       69.18340000      59.74930000      56.60460000
I       72.32810000      56.60460000      56.60460000
I       69.18340000      56.60460000      66.03870000
I       69.18340000      59.74930000      62.89400000
I       72.32810000      56.60460000      62.89400000
I       69.18340000      56.60460000      72.32810000
I       69.18340000      59.74930000      69.18340000
I       72.32810000      56.60460000      69.18340000
I       69.18340000      62.89400000       3.14470000
I       69.18340000      66.03870000       0.00000000
I       72.32810000      62.89400000       0.00000000
I       69.18340000      62.89400000       9.43410000
I       69.18340000      66.03870000       6.28940000
I       72.32810000      62.89400000       6.28940000
I       69.18340000      62.89400000      15.72350000
I       69.18340000      66.03870000      12.57880000
I       72.32810000      62.89400000      12.57880000
I       69.18340000      62.89400000      22.01290000
I       69.18340000      66.03870000      18.86820000
I       72.32810000      62.89400000      18.86820000
I       69.18340000      62.89400000      28.30230000
I       69.18340000      66.03870000      25.15760000
I       72.32810000      62.89400000      25.15760000
I       69.18340000      62.89400000      34.59170000
I       69.18340000      66.03870000      31.44700000
I       72.32810000      62.89400000      31.44700000
I       69.18340000      62.89400000      40.88110000
I       69.18340000      66.03870000      37.73640000
I       72.32810000      62.89400000      37.73640000
I       69.18340000      62.89400000      47.17050000
I       69.18340000      66.03870000      44.02580000
I       72.32810000      62.89400000      44.02580000
I       69.18340000      62.89400000      53.45990000
I       69.18340000      66.03870000      50.31520000
I       72.32810000      62.89400000      50.31520000
I       69.18340000      62.89400000      59.74930000
I       69.18340000      66.03870000      56.60460000
I       72.32810000      62.89400000      56.60460000
I       69.18340000      62.89400000      66.03870000
I       69.18340000      66.03870000      62.89400000
I       72.32810000      62.89400000      62.89400000
I       69.18340000      62.89400000      72.32810000
I       69.18340000      66.03870000      69.18340000
I       72.32810000      62.89400000      69.18340000
I       69.18340000      69.18340000       3.14470000
I       69.18340000      72.32810000       0.00000000
I       72.32810000      69.18340000       0.00000000
I       69.18340000      69.18340000       9.43410000
I       69.18340000      72.32810000       6.28940000
I       72.32810000      69.18340000       6.28940000
I       69.18340000      69.18340000      15.72350000
I       69.18340000      72.32810000      12.57880000
I       72.32810000      69.18340000      12.57880000
I       69.18340000      69.18340000      22.01290000
I       69.18340000      72.32810000      18.86820000
I       72.32810000      69.18340000      18.86820000
I       69.18340000      69.18340000      28.30230000
I       69.18340000      72.32810000      25.15760000
I       72.32810000      69.18340000      25.15760000
I       69.18340000      69.18340000      34.59170000
I       69.18340000      72.32810000      31.44700000
I       72.32810000      69.18340000      31.44700000
I       69.18340000      69.18340000      40.88110000
I       69.18340000      72.32810000      37.73640000
I       72.32810000      69.18340000      37.73640000
I       69.18340000      69.18340000      47.17050000
I       69.18340000      72.32810000      44.02580000
I       72.32810000      69.18340000      44.02580000
I       69.18340000      69.18340000      53.45990000
I       69.18340000      72.32810000      50.31520000
I       72.32810000      69.18340000      50.31520000
I       69.18340000      69.18340000      59.74930000
I       69.18340000      72.32810000      56.60460000
I       72.32810000      69.18340000      56.60460000
I       69.18340000      69.18340000      66.03870000
I       69.18340000      72.32810000      62.89400000
I       72.32810000      69.18340000      62.89400000
I       69.18340000      69.18340000      72.32810000
I       69.18340000      72.32810000      69.18340000
I       72.32810000      69.18340000      69.18340000
