Cs I  Pb
 1.0000000000000000
     9.0540298517673357    0.0000000000000000    0.0000000000000000
    -0.0000000000000000   16.6935687762921852   -0.0000000000000000
     0.0000000000000000   -0.0000000000000000   12.4818002995422432
 Cs  I   Pb 
   8  24   8
Selective dynamics
Cartesian
  8.2689852447746510  8.6505809875806161  3.1204500748855613   T   T   T
  3.7419703188909943  3.8695955946385272  3.1204500748855613   T   T   T
  0.7850446069926773 -0.3037965994345193  9.3613502246566771   T   T   T
  5.3120595328763471  4.4771887935075680  9.3613502246566771   T   T   T
  8.2689852447746510 16.9973653757267193  3.1204500748855613   T   T   T
  3.7419703188909943 12.2163799827846287  3.1204500748855613   T   T   T
  0.7850446069926772  8.0429877887115868  9.3613502246566771   T   T   T
  5.3120595328763462 12.8239731816536615  9.3613502246566771   T   T   T
  4.5519968881538864  7.6636581293627746  3.1204500748855613   T   T   T
  0.0249819622702151  4.8565184528563705  3.1204500748855613   T   T   T
  4.5020329636134564  0.6831262587833176  9.3613502246566771   T   T   T
  9.0290478894971233  3.4902659352897336  9.3613502246566771   T   T   T
  7.3174426757923907  6.8242017240228581 11.9964579810641379   T   T   T
  2.7904277499087176  5.6959748581962879  6.7262424682492119   T   T   T
  1.7365871759749525  1.5225826641232334  5.7555578312930296   T   T   T
  6.2636021018586243  2.6508095299498144  0.4853423184780939   T   T   T
  1.7365871759749525  1.5225826641232334  0.4853423184780939   T   T   T
  6.2636021018586243  2.6508095299498144  5.7555578312930296   T   T   T
  7.3174426757923907  6.8242017240228581  6.7262424682492119   T   T   T
  2.7904277499087176  5.6959748581962879 11.9964579810641379   T   T   T
  4.5519968881538864 16.0104425175088814  3.1204500748855613   T   T   T
  0.0249819622702151 13.2033028410024684  3.1204500748855613   T   T   T
  4.5020329636134564  9.0299106469294159  9.3613502246566771   T   T   T
  9.0290478894971233 11.8370503234358235  9.3613502246566771   T   T   T
  7.3174426757923907 15.1709861121689649 11.9964579810641379   T   T   T
  2.7904277499087176 14.0427592463423760  6.7262424682492119   T   T   T
  1.7365871759749525  9.8693670522693253  5.7555578312930296   T   T   T
  6.2636021018586243 10.9975939180959195  0.4853423184780939   T   T   T
  1.7365871759749525  9.8693670522693253  0.4853423184780939   T   T   T
  6.2636021018586243 10.9975939180959195  5.7555578312930296   T   T   T
  7.3174426757923907 15.1709861121689649  6.7262424682492119   T   T   T
  2.7904277499087176 14.0427592463423760 11.9964579810641379   T   T   T
  4.5270149258836705  0.0000000000000000  0.0000000000000000   T   T   T
  0.0000000000000000  4.1733921940730481  6.2409001497711216   T   T   T
  4.5270149258836705 -0.0000000000000000  6.2409001497711216   T   T   T
 -0.0000000000000000  4.1733921940730481 -0.0000000000000000   T   T   T
  4.5270149258836705  8.3467843881460961 -0.0000000000000000   T   T   T
 -0.0000000000000000 12.5201765822191451  6.2409001497711216   T   T   T
  4.5270149258836705  8.3467843881460961  6.2409001497711216   T   T   T
  0.0000000000000000 12.5201765822191451 -0.0000000000000000   T   T   T
