Cs I  Pb
 1.0000000000000000
     8.6602999999999994    0.0000000000000000    0.0000000000000000
    -4.3301499999999979    7.5000398043943743    0.0000000000000000
     0.0000000000000000    0.0000000000000000    7.9021999999999997
 Cs  I   Pb 
   2   6   2
Cartesian
 -0.0004330149999991  5.0002765375897287  1.2242878460000000
  4.3305830150000002  2.4997632668046452  5.1753878459999996
  6.4671223264999993  1.2662317201759024  1.9834521999999999
  4.3301500000000015  4.9675763640425696  1.9834521999999999
  2.1931776735000010  1.2662317201759026  1.9834521999999999
 -2.1369723264999978  6.2338080842184720  5.9345521999999997
  0.0000000000000002  2.5324634403518052  5.9345521999999997
  2.1369723265000009  6.2338080842184720  5.9345521999999997
  0.0000000000000000  0.0000000000000000  0.0474132000000000
  0.0000000000000000  0.0000000000000000  3.9985131999999997
