Cs I  Pb
 1.0000000000000000
     8.6602999999999994    0.0000000000000000    0.0000000000000000
    -8.6602999999999959   15.0000796087887487    0.0000000000000000
     0.0000000000000000    0.0000000000000000   15.8043999999999993
 Cs  I   Pb 
   8  24   8
Cartesian
 -0.0004330149999991  5.0002765375897287  1.2242878460000000
  4.3305830150000002  2.4997632668046452  5.1753878459999996
 -0.0004330149999991  5.0002765375897287  9.1264878459999998
  4.3305830150000002  2.4997632668046452 13.0775878460000001
 -4.3305830149999966 12.5003163419841030  1.2242878460000000
  0.0004330150000023  9.9998030711990200  5.1753878459999996
 -4.3305830149999966 12.5003163419841030  9.1264878459999998
  0.0004330150000023  9.9998030711990200 13.0775878460000001
  6.4671223264999993  1.2662317201759024  1.9834521999999999
  4.3301500000000015  4.9675763640425696  1.9834521999999999
  2.1931776735000010  1.2662317201759026  1.9834521999999999
 -2.1369723264999978  6.2338080842184720  5.9345521999999997
  0.0000000000000002  2.5324634403518052  5.9345521999999997
  2.1369723265000009  6.2338080842184720  5.9345521999999997
  6.4671223264999993  1.2662317201759024  9.8856521999999991
  4.3301500000000015  4.9675763640425696  9.8856521999999991
  2.1931776735000010  1.2662317201759026  9.8856521999999991
 -2.1369723264999978  6.2338080842184720 13.8367521999999994
  0.0000000000000002  2.5324634403518052 13.8367521999999994
  2.1369723265000009  6.2338080842184720 13.8367521999999994
  2.1369723265000014  8.7662715245702767  1.9834521999999999
  0.0000000000000036 12.4676161684369440  1.9834521999999999
 -2.1369723264999969  8.7662715245702767  1.9834521999999999
 -6.4671223264999957 13.7338478886128463  5.9345521999999997
 -4.3301499999999979 10.0325032447461790  5.9345521999999997
 -2.1931776734999970 13.7338478886128463  5.9345521999999997
  2.1369723265000014  8.7662715245702767  9.8856521999999991
  0.0000000000000036 12.4676161684369440  9.8856521999999991
 -2.1369723264999969  8.7662715245702767  9.8856521999999991
 -6.4671223264999957 13.7338478886128463 13.8367521999999994
 -4.3301499999999979 10.0325032447461790 13.8367521999999994
 -2.1931776734999970 13.7338478886128463 13.8367521999999994
  0.0000000000000000  0.0000000000000000  0.0474132000000000
  0.0000000000000000  0.0000000000000000  3.9985131999999997
  0.0000000000000000  0.0000000000000000  7.9496131999999999
  0.0000000000000000  0.0000000000000000 11.9007131999999984
 -4.3301499999999979  7.5000398043943743  0.0474132000000000
 -4.3301499999999979  7.5000398043943743  3.9985131999999997
 -4.3301499999999979  7.5000398043943743  7.9496131999999999
 -4.3301499999999979  7.5000398043943743 11.9007131999999984
