Cs I  Pb
 1.0000000000000000
     8.4972210410010760    0.0000978136974574    0.0000013569511081
    -8.4970516229984927   14.7177147141096771   -0.0000044039452737
     0.0000024897055330   -0.0000032224775194   15.0296821496293465
 Cs  I   Pb 
   8  24   8
Cartesian
 -0.0002972776149033  4.9061718807271291  1.7472941928517758
  4.2490118375301655  2.4527702106738052  5.5047581052550818
 -0.0002977789054527  4.9061627297844126  9.2622462676546746
  4.2490048785182646  2.4527680048695686 13.0196074687652033
 -4.2488334541661539 12.2649804206117281  1.7472939570809640
  0.0004893370760319  9.8116867804679462  5.5047344299066747
 -4.2488363648759480 12.2649828627085800  9.2622414725749618
  0.0004921925241849  9.8116907986336894 13.0196300828627560
  6.2135563807542979  1.3187244673169158  1.7497165648452462
  4.2498777229643068  4.7210391655499340  1.7498940126742302
  2.2850404116765106  1.3176864763971903  1.7498048449970705
 -1.9646760502496914  6.0401331156947027  5.5072087444410904
 -0.0011737461251729  2.6380330350076298  5.5073181589272462
  1.9635128762358132  6.0411914473741479  5.5073060890422534
  6.2136328713458822  1.3186860096813648  9.2647371547936590
  4.2498632055232992  4.7211829956611995  9.2648078689727988
  2.2850160040589804  1.3176534802814448  9.2648309201201382
 -1.9653914867020958  6.0405475003459310 13.0220510714718749
 -0.0011754799727844  2.6371241198085564 13.0221425417106591
  1.9641562998639799  6.0415803416278804 13.0221057711047230
  1.9652843702663831  8.6773979584275338  1.7497349805090099
  0.0013261178148504 12.0803375942799853  1.7497986814028206
 -1.9635502120219335  8.6764327598398108  1.7498784467318045
 -6.2135288328448510 13.3992073586670664  5.5072386193178398
 -4.2497020362150506  9.9962863850676786  5.5073068107385055
 -2.2847633019642344 13.4002557054919311  5.5073296329810493
  1.9649682721059982  8.6775810678885907  9.2647214798996220
  0.0013516847537604 12.0800271879632088  9.2648332932513107
 -1.9634022537587277  8.6765501103616582  9.2648041935198968
 -6.2144073285223609 13.3996850497424482 13.0220061306022448
 -4.2497176897462223  9.9956189622916369 13.0220634183367707
 -2.2840149875271960 13.4006751242476714 13.0221131642146428
  0.0012914701465925 -0.0009804123823014 -0.1294649101856431
 -0.0011722532562425  0.0004243405987757  3.6285579084781090
  0.0011909652607657 -0.0008215726698199  7.3857603738241036
 -0.0011191287049843  0.0005069764885343 11.1441101484783527
 -4.2474268784638651  7.3584558956862933 -0.1294110300450118
 -4.2498087319933591  7.3598747354429728  3.6285632351920603
 -4.2473556250022453  7.3583235213210880  7.3857379344061167
 -4.2497623697601066  7.3597356294908627 11.1440716102454331
