Cs I  Pb
 1.0000000000000000
    10.4551033112550513   -0.0000000038209859   -0.0000000123180049
    -0.0000000035081736    9.6239824725936600    0.0000000110391070
    -0.0000000209713412    0.0000000204795142   17.7969434522274810
 Cs  I   Pb 
   8  24   8
Cartesian
  4.3546361350573930  1.2030744383855876 11.9475084276478789
  0.8729153772860146  3.6089168960958253  3.0490362403914206
  6.1004671692555643  3.6090700004300253  5.8494355464875500
  9.5821877938199780  1.2029213158346348 14.7479069181353051
  4.3546361260383186  6.0150655911481632 11.9475083465460425
  0.8729155051589532  8.4209080375529570  3.0490362681562360
  6.1004672136537206  8.4210609838405830  5.8494355112712526
  9.5821877925995516  6.0149124606055206 14.7479069934796705
  1.6936841543173693  1.2028515004958860  0.0383455323850509
  3.5338670972204835  3.6091399746114279  8.9368166923751797
  8.7614187285548617  3.6088471337939581 17.7585983268614029
  6.9212360589236761  1.2031442018710179  8.8601260961917365
  3.1339939190217483  1.2031174295090157  5.0937971699696467
  2.0935580310376047  3.6088740347445594 13.9922698449422427
  7.3211099233304102  3.6091129360056993 12.7031452566935279
  8.3615456829607542  1.2028784183478445  3.8046746822868114
  0.3412435610601460  1.2031633781948925 10.9256964628359228
  4.8863078495702359  3.6088279469130216  2.0272254534989513
 10.1138594225400293  3.6091588226372870  6.8712461938761296
  5.5687954670044526  1.2028323236937697 15.7697188060482603
  1.6936841716792086  6.0148428303392052  0.0383455058992247
  3.5338668648475284  8.4211312411207544  8.9368166369338926
  8.7614185188733327  8.4208380543969685 17.7585981571167189
  6.9212360705548841  6.0151352096850319  8.8601262068182880
  3.1339939868487723  6.0151086352795842  5.0937971258668018
  2.0935578701372890  8.4208650233857920 13.9922698035497302
  7.3211095818961303  8.4211042929096092 12.7031452370550326
  8.3615454735325017  6.0148695244787227  3.8046743612731713
  0.3412435905289934  6.0151548033770155 10.9256965371852548
  4.8863075806901204  8.4208190304224928  2.0272253754301843
 10.1138590802210224  8.4211502822997115  6.8712461357044496
  5.5687954967703588  6.0148236053722313 15.7697185639323383
  1.6773446327696917  1.2032145111516734  7.8138393308756182
  3.5502071245833222  3.6087764734035961 16.7123094104595999
  8.7777587862000352  3.6092105028363579  9.9831060257787971
  6.9048961375738278  1.2027808382733887  1.0846322874874519
  1.6773447218992326  6.0152058172998277  7.8138394403061913
  3.5502073615047554  8.4207676083179326 16.7123097583333013
  8.7777589605054978  8.4212014574120797  9.9831058053647155
  6.9048966109525027  6.0147722328524118  1.0846325054497807
