Cs I  Pb
 1.0000000000000000
     9.3796968487670380    0.0000055114377613   -0.0000051277027707
     0.0000121816620984   16.4694289682883657    0.0000739862716420
    -0.0000077193870931    0.0000530255022142   12.5258944288231842
 Cs  I   Pb 
   8  24   8
Cartesian
  8.4335027305594821  8.6651374383349946  3.1320129074360055
  3.7442455116037054  3.6868975579492735  3.1309509479639344
  0.9460633690063606 -0.4304123578207777  9.3944039135607884
  5.6354986609670563  4.5479341450652857  9.3945134808026687
  8.4335200061522428 16.8998379781051682  3.1321293015603242
  3.7438795162454568 11.9217417999771538  3.1309619582471715
  0.9460674972479691  7.8042634974107568  9.3943505750666869
  5.6362007759106865 12.7823435518675641  9.3946582449718559
  4.7980931671493234  7.4146282253636757  3.1305992613035807
  0.1079406496449973  4.9375775630567489  3.1329313218290475
  4.5816810570768309  0.8200864185235750  9.3954573255421909
  9.2717483847714881  3.2972129382671436  9.3930093806470367
  7.6067590829815241  6.8054948444194583 11.9847298326153346
  2.9173456494660215  5.5464118027442497  6.8044317876913603
  1.7727829048540473  1.4279429028394794  5.7214964305534837
  6.4624385408602878  2.6894364558788455  0.5416075392126245
  1.7732215166461636  1.4293753289111291  0.5411291657145314
  6.4625309476980641  2.6879836154893155  5.7216496446143568
  7.6068294657113027  6.8065984788833189  6.8043617913711811
  2.9169787871199020  5.5455242980740360 11.9844111413597947
  4.7980300013546957 15.6494674549361470  3.1305737452960738
  0.1080356180180468 13.1721843002751644  3.1329112979128890
  4.5817260144253087  9.0549081934817615  9.3953895072003490
  9.2714828835221752 11.5322018659409888  9.3931877651166875
  7.6070502487020333 15.0398544467433481 11.9847517260048093
  2.9165991964944102 13.7811174439724446  6.8041290348526040
  1.7722413137072905  9.6632568601075199  5.7215929827724086
  6.4630574651098058 10.9242086055227130  0.5414534836613106
  1.7728573953415045  9.6643684742162250  0.5411876762184314
  6.4633968781820741 10.9231287880630887  5.7218657325810574
  7.6070090116556282 15.0409142626538781  6.8042826193682142
  2.9163686978411403 13.7801395276177967 11.9846217090812228
  4.6897124743155079 -0.0000642145973168 -0.0001435812177321
 -0.0002335010793727  4.1174468219289864  6.2630279568430431
  4.6900834801399185  0.0002692564050692  6.2628315677291706
  0.0001140067868645  4.1173750740241193  0.0000508888891293
  4.6898107677630660  8.2345271893954930  0.0000538320920091
 -0.0002385792491495 12.3521020626742803  6.2632067126698345
  4.6901228167164248  8.2346875849433179  6.2627920086388045
  0.0000808484937710 12.3520932425358989 -0.0001498748802131
