Cs I  Pb
 1.0000000000000000
     8.8560999999999996    0.0000000000000000    0.0000000000000000
     0.0000000000000000   17.1531999999999982    0.0000000000000000
     0.0000000000000000    0.0000000000000000   12.4722000000000008
 Cs  I   Pb 
   8  24   8
Cartesian
  8.5014131949999996  8.5329451059999997  3.1180500000000002
  4.0733631949999998  4.3319548939999999  3.1180500000000002
  0.3546868050000003  0.0436548940000003  9.3541500000000006
  4.7827368049999999  4.2446451059999992  9.3541500000000006
  8.5014131949999996 17.1095451059999988  3.1180500000000002
  4.0733631949999998 12.9085548939999981  3.1180500000000002
  0.3546868050000003  8.6202548939999986  9.3541500000000006
  4.7827368049999999 12.8212451059999992  9.3541500000000006
  4.4380573929999994  8.0446792679999994  3.1180500000000002
  0.0100073930000000  4.8202207319999992  3.1180500000000002
  4.4180426069999994  0.5319207319999997  9.3541500000000006
  8.8460926069999992  3.7563792679999999  9.3541500000000006
  7.1325258179999995  6.8843510540000006 12.0260694060000013
  2.7044758179999997  5.9805489459999981  6.6822305940000000
  1.7235741820000001  1.6922489459999988  5.7899694060000000
  6.1516241819999999  2.5960510540000010  0.4461305940000000
  1.7235741820000001  1.6922489459999988  0.4461305940000000
  6.1516241819999999  2.5960510540000010  5.7899694060000000
  7.1325258179999995  6.8843510540000006  6.6822305940000000
  2.7044758179999997  5.9805489459999981 12.0260694060000013
  4.4380573929999994 16.6212792679999986  3.1180500000000002
  0.0100073930000000 13.3968207319999983  3.1180500000000002
  4.4180426069999994  9.1085207319999988  9.3541500000000006
  8.8460926069999992 12.3329792679999990  9.3541500000000006
  7.1325258179999995 15.4609510539999988 12.0260694060000013
  2.7044758179999997 14.5571489459999981  6.6822305940000000
  1.7235741820000001 10.2688489459999985  5.7899694060000000
  6.1516241819999999 11.1726510539999992  0.4461305940000000
  1.7235741820000001 10.2688489459999985  0.4461305940000000
  6.1516241819999999 11.1726510539999992  5.7899694060000000
  7.1325258179999995 15.4609510539999988  6.6822305940000000
  2.7044758179999997 14.5571489459999981 12.0260694060000013
  4.4280499999999998  0.0000000000000000  0.0000000000000000
  0.0000000000000000  4.2882999999999996  6.2361000000000004
  4.4280499999999998  0.0000000000000000  6.2361000000000004
  0.0000000000000000  4.2882999999999996  0.0000000000000000
  4.4280499999999998  8.5765999999999991  0.0000000000000000
  0.0000000000000000 12.8648999999999987  6.2361000000000004
  4.4280499999999998  8.5765999999999991  6.2361000000000004
  0.0000000000000000 12.8648999999999987  0.0000000000000000
