Cs I  Pb
 1.0000000000000000
    12.5575360017841469    0.0000000000000000   -0.0000000000000000
     0.0000000000000000   12.5575360017841469    0.0000000000000000
    -0.0000000000000000    0.0000000000000000   12.5575360017841469
 Cs  I   Pb 
   8  24   8
Selective dynamics
Cartesian
  3.1393840004460358  3.1393840004460358  3.1393840004460363   T   T   T
  3.1393840004460358  3.1393840004460358  9.4181520013381093   T   T   T
  3.1393840004460358  9.4181520013381093  3.1393840004460363   T   T   T
  3.1393840004460358  9.4181520013381093  9.4181520013381093   T   T   T
  9.4181520013381093  3.1393840004460358  3.1393840004460363   T   T   T
  9.4181520013381093  3.1393840004460358  9.4181520013381093   T   T   T
  9.4181520013381093  9.4181520013381093  3.1393840004460363   T   T   T
  9.4181520013381093  9.4181520013381093  9.4181520013381093   T   T   T
 -0.0000000000000004 -0.0000000000000004  3.1393840004460363   T   T   T
 -0.0000000000000004  3.1393840004460358  0.0000000000000000   T   T   T
  3.1393840004460358 -0.0000000000000004 -0.0000000000000000   T   T   T
 -0.0000000000000004 -0.0000000000000004  9.4181520013381093   T   T   T
 -0.0000000000000004  3.1393840004460358  6.2787680008920725   T   T   T
  3.1393840004460358 -0.0000000000000004  6.2787680008920725   T   T   T
 -0.0000000000000004  6.2787680008920717  3.1393840004460363   T   T   T
 -0.0000000000000004  9.4181520013381093  0.0000000000000000   T   T   T
  3.1393840004460358  6.2787680008920717  0.0000000000000000   T   T   T
 -0.0000000000000004  6.2787680008920717  9.4181520013381093   T   T   T
 -0.0000000000000004  9.4181520013381093  6.2787680008920725   T   T   T
  3.1393840004460358  6.2787680008920717  6.2787680008920725   T   T   T
  6.2787680008920717 -0.0000000000000004  3.1393840004460363   T   T   T
  6.2787680008920717  3.1393840004460358 -0.0000000000000000   T   T   T
  9.4181520013381093 -0.0000000000000004 -0.0000000000000000   T   T   T
  6.2787680008920717 -0.0000000000000004  9.4181520013381093   T   T   T
  6.2787680008920717  3.1393840004460358  6.2787680008920725   T   T   T
  9.4181520013381093 -0.0000000000000004  6.2787680008920725   T   T   T
  6.2787680008920717  6.2787680008920717  3.1393840004460363   T   T   T
  6.2787680008920717  9.4181520013381093  0.0000000000000000   T   T   T
  9.4181520013381093  6.2787680008920717 -0.0000000000000000   T   T   T
  6.2787680008920717  6.2787680008920717  9.4181520013381093   T   T   T
  6.2787680008920717  9.4181520013381093  6.2787680008920725   T   T   T
  9.4181520013381093  6.2787680008920717  6.2787680008920725   T   T   T
 -0.0000000000000004 -0.0000000000000004 -0.0000000000000000   T   T   T
 -0.0000000000000004 -0.0000000000000004  6.2787680008920725   T   T   T
 -0.0000000000000004  6.2787680008920717  0.0000000000000000   T   T   T
 -0.0000000000000004  6.2787680008920717  6.2787680008920725   T   T   T
  6.2787680008920717 -0.0000000000000004 -0.0000000000000000   T   T   T
  6.2787680008920717 -0.0000000000000004  6.2787680008920725   T   T   T
  6.2787680008920717  6.2787680008920717  0.0000000000000000   T   T   T
  6.2787680008920717  6.2787680008920717  6.2787680008920725   T   T   T
