Cs I  Pb
 1.0000000000000000
    10.4551033590552507    0.0000000000000000    0.0000000000000000
     0.0000000000000000    9.6239814229550369    0.0000000000000000
     0.0000000000000000    0.0000000000000000   17.7969422271288806
 Cs  I   Pb 
   8  24   8
Selective dynamics
Cartesian
  4.3546357325661704  1.2029976778693794 11.9475063650034183   T   T   T
  0.8729159469614542  3.6089930336081384  3.0490352514389820   T   T   T
  6.1004676264890776  3.6089930336081384  5.8494358621254579   T   T   T
  9.5821874120937967  1.2029976778693794 14.7479069756899026   T   T   T
  4.3546357325661704  6.0149883893468967 11.9475063650034183   T   T   T
  0.8729159469614542  8.4209837450856551  3.0490352514389825   T   T   T
  6.1004676264890776  8.4209837450856551  5.8494358621254579   T   T   T
  9.5821874120937967  6.0149883893468967 14.7479069756899026   T   T   T
  1.6936847121859062  1.2029976778693794  0.0383448293589078   T   T   T
  3.5338669673417171  3.6089930336081384  8.9368159429233529   T   T   T
  8.7614186468693482  3.6089930336081384 17.7585973977699680   T   T   T
  6.9212363917135313  1.2029976778693794  8.8601262842055277   T   T   T
  3.1339950522247801  1.2029976778693794  5.0937984601506194   T   T   T
  2.0935566273028456  3.6089930336081384 13.9922695737150615   T   T   T
  7.3211083068304728  3.6089930336081384 12.7031437669782488   T   T   T
  8.3615467317524068  1.2029976778693794  3.8046726534138133   T   T   T
  0.3412442043195668  1.2029976778693794 10.9256957421662158   T   T   T
  4.8863074752080582  3.6089930336081384  2.0272246286017750   T   T   T
 10.1138591547356906  3.6089930336081384  6.8712464849626658   T   T   T
  5.5687958838471925  1.2029976778693794 15.7697175985271052   T   T   T
  1.6936847121859062  6.0149883893468967  0.0383448293589078   T   T   T
  3.5338669673417171  8.4209837450856551  8.9368159429233529   T   T   T
  8.7614186468693482  8.4209837450856551 17.7585973977699680   T   T   T
  6.9212363917135313  6.0149883893468967  8.8601262842055277   T   T   T
  3.1339950522247801  6.0149883893468967  5.0937984601506194   T   T   T
  2.0935566273028456  8.4209837450856551 13.9922695737150615   T   T   T
  7.3211083068304728  8.4209837450856551 12.7031437669782488   T   T   T
  8.3615467317524068  6.0149883893468967  3.8046726534138138   T   T   T
  0.3412442043195667  6.0149883893468967 10.9256957421662158   T   T   T
  4.8863074752080582  8.4209837450856551  2.0272246286017750   T   T   T
 10.1138591547356906  8.4209837450856551  6.8712464849626667   T   T   T
  5.5687958838471925  6.0149883893468967 15.7697175985271052   T   T   T
  1.6773433099976343  1.2029976778693794  7.8138391786880632   T   T   T
  3.5502083695299924  3.6089930336081384 16.7123102922525177   T   T   T
  8.7777600490576209  3.6089930336081384  9.9831030484408210   T   T   T
  6.9048949895252596  1.2029976778693794  1.0846319348763778   T   T   T
  1.6773433099976343  6.0149883893468967  7.8138391786880641   T   T   T
  3.5502083695299920  8.4209837450856551 16.7123102922525177   T   T   T
  8.7777600490576209  8.4209837450856551  9.9831030484408210   T   T   T
  6.9048949895252596  6.0149883893468967  1.0846319348763778   T   T   T
