Cs I  Pb
 1.0000000000000000
    12.5183845866778203   -0.0000000061999184    0.0000000144557533
    -0.0000000061997190   12.5183846593946413    0.0000000493631700
     0.0000000144560025    0.0000000493636850   12.5183847743850922
 Cs  I   Pb 
   8  24   8
Cartesian
  3.1295961533425145  3.1295968909286440  3.1295965367110430
  3.1295967069381705  3.1295961664512904  9.3887880977298863
  3.1295959220902776  9.3887883853134699  3.1295958273835400
  3.1295967163052985  9.3887890796665499  9.3887878816433314
  9.3887888629456793  3.1295960537299155  3.1295966286017127
  9.3887888573842915  3.1295966487425457  9.3887889796937394
  9.3887883086125399  9.3887876784595665  3.1295968118966333
  9.3887890657616353  9.3887883754343608  9.3887889889650680
 -0.0000002175136324 -0.0000000236533574  3.1295972155353300
 -0.0000000523434487  3.1295973377178266 -0.0000003946417085
  3.1295974965259314 -0.0000001548611761 -0.0000006023120263
  0.0000007796450857 -0.0000001083137636  9.3887871460401691
 -0.0000005686734530  3.1295973215787041  6.2591917934468615
  3.1295973957075698  0.0000000624770565  6.2591925765347032
 -0.0000003385673151  6.2591927347634124  3.1295974498204151
  0.0000005260663497  9.3887871723730854  0.0000005319801730
  3.1295970662248989  6.2591923989818268 -0.0000004837456981
 -0.0000003216611147  6.2591918479271325  9.3887876545920594
  0.0000010010269588  9.3887873446293408  6.2591930478975968
  3.1295973113462829  6.2591928637292229  6.2591927041923352
  6.2591923206917777 -0.0000005542309566  3.1295980495185218
  6.2591923143556114  3.1295969579943024 -0.0000007091005675
  9.3887871025103689  0.0000002105612449  0.0000001174773129
  6.2591920238864720  0.0000000479002912  9.3887876405150585
  6.2591922855865771  3.1295974199521561  6.2591932248699997
  9.3887874248737511  0.0000000498089244  6.2591922384777865
  6.2591925572807012  6.2591926032596934  3.1295974667353668
  6.2591922206174750  9.3887875637391822  0.0000002111480573
  9.3887872186201449  6.2591921090264879  0.0000001926635859
  6.2591919800939060  6.2591919367493478  9.3887866215087232
  6.2591921777402870  9.3887868963294796  6.2591924844632789
  9.3887862876338524  6.2591924532500247  6.2591919667209375
 -0.0000006545329442  0.0000000533107737 -0.0000010187210270
 -0.0000003899830831 -0.0000003093124660  6.2591929053727577
 -0.0000009893528771  6.2591935386532951 -0.0000007018618639
 -0.0000003043131663  6.2591926133385511  6.2591934025265905
  6.2591928703840454 -0.0000005169438763 -0.0000009787915023
  6.2591917852588583 -0.0000013786577921  6.2591928609050234
  6.2591928341237395  6.2591931706763511 -0.0000002689802034
  6.2591923705602905  6.2591928437443407  6.2591936430702582
