Cs I  Pb
 1.0000000000000000
     8.6550111789253243   -0.0000000600271025    0.0000000194054077
    -0.0000001200533852   17.3100188552444649   -0.0000000247712964
     0.0000000282912992   -0.0000000165569635   12.8214585325772195
 Cs  I   Pb 
   8  24   8
Cartesian
  4.3275007280149120  0.0000147616072830  3.2053531139797786
 -0.0000029811369664  4.3274788649084979  3.2053557056257573
  4.3275006323075837  0.0000147415628546  9.6160963121394758
 -0.0000027459946790  4.3274784336056031  9.6160938789478596
  4.3275098454145899  8.6549880091707099  3.2053591306866567
  0.0000020720509521 12.9825459576375710  3.2053568011191831
  4.3275080887092034  8.6549879267553091  9.6160945306064409
  0.0000025509811615 12.9825460194860725  9.6160960885738227
 -0.0000012445576949 -0.0000028443947455  3.2075661720323536
  4.3275089804258204  4.3275087717022300  3.2033298666315200
  7.0782242546411780  2.7507090947721560  0.0000029678965138
  1.5766553666521479  5.9044939526150797  0.0000046843787947
  5.9044884536708917  7.0783740277848626  0.0000032780543008
  2.7507369091348601  1.5768421584688488  0.0000049153769993
 -0.0000017540839520 -0.0000024761046039  9.6181236492277051
  4.3275086917315404  4.3275093433350316  9.6139271377303182
  7.0782355454393651  2.7506937054668419  6.4107275241587498
  1.5766487281431285  5.9044964482136884  6.4107274883210223
  5.9044971682339948  7.0783801528658490  6.4107253910378068
  2.7507271774802851  1.5768344636370510  6.4107259680961093
  0.0000016730890148  8.6550195463160140  3.2075562858124100
  4.3275048088590014 12.9825025896165709  3.2033239077982545
  7.0782994669994910 11.4056216694649812  0.0000046997837221
  1.5768960864798498 14.5592180370045980  0.0000036391520632
  5.9041885869304602 15.7330756537586129  0.0000070959603859
  2.7506544041054823 10.2317491833972856  0.0000038784281747
  0.0000018891870049  8.6550194722726221  9.6181224444655804
  4.3275041301013975 12.9825012854397386  9.6139252752221225
  7.0783002491380564 11.4056151469664826  6.4107263185954722
  1.5768837747459634 14.5592343015635191  6.4107266551166244
  5.9042026213569283 15.7330855974345134  6.4107264338710461
  2.7506450347389948 10.2317406095946790  6.4107285948493633
  0.0000323763954421  0.0000610779428852 -0.0000922934306248
  4.3274886418228249  4.3273604564491901  0.0000473609141812
  0.0000255156748230  0.0000592092094888  6.4106721481874942
  4.3274960720249123  4.3273651723763518  6.4108102898973094
 -0.0000685215786519  8.6548389342056371 -0.0000891954272087
  4.3274585204747957 12.9827600754785859  0.0000485046300819
 -0.0000731300856266  8.6548478139059810  6.4106799981344453
  4.3274658966990645 12.9827520528544351  6.4108132258980923
