Cs I  Pb
 1.0000000000000000
     8.8269000000000002    0.0000000000000000    0.0000000000000000
     0.0000000000000000   17.6538000000000004    0.0000000000000000
     0.0000000000000000    0.0000000000000000   12.5980399999999992
 Cs  I   Pb 
   8  24   8
Cartesian
  4.4134500000000001  0.0000000000000000  3.1495099999999998
  0.0000000000000000  4.4134500000000001  3.1495099999999998
  4.4134500000000001  0.0000000000000000  9.4485299999999999
  0.0000000000000000  4.4134500000000001  9.4485299999999999
  4.4134500000000001  8.8269000000000002  3.1495099999999998
  0.0000000000000000 13.2403499999999994  3.1495099999999998
  4.4134500000000001  8.8269000000000002  9.4485299999999999
  0.0000000000000000 13.2403499999999994  9.4485299999999999
  0.0000000000000000  0.0000000000000000  3.1495099999999998
  4.4134500000000001  4.4134500000000001  3.1495099999999998
  6.9555972000000006  2.5421472000000001  0.0000000000000000
  1.8713028000000000  6.2847527999999997  0.0000000000000000
  6.2847527999999997  6.9555972000000006  0.0000000000000000
  2.5421472000000001  1.8713028000000000  0.0000000000000000
  0.0000000000000000  0.0000000000000000  9.4485299999999999
  4.4134500000000001  4.4134500000000001  9.4485299999999999
  6.9555972000000006  2.5421472000000001  6.2990199999999996
  1.8713028000000000  6.2847527999999997  6.2990199999999996
  6.2847527999999997  6.9555972000000006  6.2990199999999996
  2.5421472000000001  1.8713028000000000  6.2990199999999996
  0.0000000000000000  8.8269000000000002  3.1495099999999998
  4.4134500000000001 13.2403499999999994  3.1495099999999998
  6.9555972000000006 11.3690472000000007  0.0000000000000000
  1.8713028000000000 15.1116527999999999  0.0000000000000000
  6.2847527999999997 15.7824972000000017  0.0000000000000000
  2.5421472000000001 10.6982028000000007  0.0000000000000000
  0.0000000000000000  8.8269000000000002  9.4485299999999999
  4.4134500000000001 13.2403499999999994  9.4485299999999999
  6.9555972000000006 11.3690472000000007  6.2990199999999996
  1.8713028000000000 15.1116527999999999  6.2990199999999996
  6.2847527999999997 15.7824972000000017  6.2990199999999996
  2.5421472000000001 10.6982028000000007  6.2990199999999996
  0.0000000000000000  0.0000000000000000  0.0000000000000000
  4.4134500000000001  4.4134500000000001  0.0000000000000000
  0.0000000000000000  0.0000000000000000  6.2990199999999996
  4.4134500000000001  4.4134500000000001  6.2990199999999996
  0.0000000000000000  8.8269000000000002  0.0000000000000000
  4.4134500000000001 13.2403499999999994  0.0000000000000000
  0.0000000000000000  8.8269000000000002  6.2990199999999996
  4.4134500000000001 13.2403499999999994  6.2990199999999996
