2160
Lattice="31.3026 0.0 0.0 0.0 57.486 0.0 0.0 0.0 53.283" Properties=species:S:1:pos:R:3 pbc="T T T"
Cs       4.33687089       1.19762500      11.91585490
Cs       0.88022911       3.59287500       3.03535490
Cs       6.09732911       3.59287500       5.84514510
Cs       9.55397089       1.19762500      14.72564510
Cs       4.33687089       1.19762500      29.67685490
Cs       0.88022911       3.59287500      20.79635490
Cs       6.09732911       3.59287500      23.60614510
Cs       9.55397089       1.19762500      32.48664510
Cs       4.33687089       1.19762500      47.43785490
Cs       0.88022911       3.59287500      38.55735490
Cs       6.09732911       3.59287500      41.36714510
Cs       9.55397089       1.19762500      50.24764510
Cs       4.33687089       5.98812500      11.91585490
Cs       0.88022911       8.38337500       3.03535490
Cs       6.09732911       8.38337500       5.84514510
Cs       9.55397089       5.98812500      14.72564510
Cs       4.33687089       5.98812500      29.67685490
Cs       0.88022911       8.38337500      20.79635490
Cs       6.09732911       8.38337500      23.60614510
Cs       9.55397089       5.98812500      32.48664510
Cs       4.33687089       5.98812500      47.43785490
Cs       0.88022911       8.38337500      38.55735490
Cs       6.09732911       8.38337500      41.36714510
Cs       9.55397089       5.98812500      50.24764510
Cs       4.33687089      10.77862500      11.91585490
Cs       0.88022911      13.17387500       3.03535490
Cs       6.09732911      13.17387500       5.84514510
Cs       9.55397089      10.77862500      14.72564510
Cs       4.33687089      10.77862500      29.67685490
Cs       0.88022911      13.17387500      20.79635490
Cs       6.09732911      13.17387500      23.60614510
Cs       9.55397089      10.77862500      32.48664510
Cs       4.33687089      10.77862500      47.43785490
Cs       0.88022911      13.17387500      38.55735490
Cs       6.09732911      13.17387500      41.36714510
Cs       9.55397089      10.77862500      50.24764510
Cs       4.33687089      15.56912500      11.91585490
Cs       0.88022911      17.96437500       3.03535490
Cs       6.09732911      17.96437500       5.84514510
Cs       9.55397089      15.56912500      14.72564510
Cs       4.33687089      15.56912500      29.67685490
Cs       0.88022911      17.96437500      20.79635490
Cs       6.09732911      17.96437500      23.60614510
Cs       9.55397089      15.56912500      32.48664510
Cs       4.33687089      15.56912500      47.43785490
Cs       0.88022911      17.96437500      38.55735490
Cs       6.09732911      17.96437500      41.36714510
Cs       9.55397089      15.56912500      50.24764510
Cs       4.33687089      20.35962500      11.91585490
Cs       0.88022911      22.75487500       3.03535490
Cs       6.09732911      22.75487500       5.84514510
Cs       9.55397089      20.35962500      14.72564510
Cs       4.33687089      20.35962500      29.67685490
Cs       0.88022911      22.75487500      20.79635490
Cs       6.09732911      22.75487500      23.60614510
Cs       9.55397089      20.35962500      32.48664510
Cs       4.33687089      20.35962500      47.43785490
Cs       0.88022911      22.75487500      38.55735490
Cs       6.09732911      22.75487500      41.36714510
Cs       9.55397089      20.35962500      50.24764510
Cs       4.33687089      25.15012500      11.91585490
Cs       0.88022911      27.54537500       3.03535490
Cs       6.09732911      27.54537500       5.84514510
Cs       9.55397089      25.15012500      14.72564510
Cs       4.33687089      25.15012500      29.67685490
Cs       0.88022911      27.54537500      20.79635490
Cs       6.09732911      27.54537500      23.60614510
Cs       9.55397089      25.15012500      32.48664510
Cs       4.33687089      25.15012500      47.43785490
Cs       0.88022911      27.54537500      38.55735490
Cs       6.09732911      27.54537500      41.36714510
Cs       9.55397089      25.15012500      50.24764510
Cs       4.33687089      29.94062500      11.91585490
Cs       0.88022911      32.33587500       3.03535490
Cs       6.09732911      32.33587500       5.84514510
Cs       9.55397089      29.94062500      14.72564510
Cs       4.33687089      29.94062500      29.67685490
Cs       0.88022911      32.33587500      20.79635490
Cs       6.09732911      32.33587500      23.60614510
Cs       9.55397089      29.94062500      32.48664510
Cs       4.33687089      29.94062500      47.43785490
Cs       0.88022911      32.33587500      38.55735490
Cs       6.09732911      32.33587500      41.36714510
Cs       9.55397089      29.94062500      50.24764510
Cs       4.33687089      34.73112500      11.91585490
Cs       0.88022911      37.12637500       3.03535490
Cs       6.09732911      37.12637500       5.84514510
Cs       9.55397089      34.73112500      14.72564510
Cs       4.33687089      34.73112500      29.67685490
Cs       0.88022911      37.12637500      20.79635490
Cs       6.09732911      37.12637500      23.60614510
Cs       9.55397089      34.73112500      32.48664510
Cs       4.33687089      34.73112500      47.43785490
Cs       0.88022911      37.12637500      38.55735490
Cs       6.09732911      37.12637500      41.36714510
Cs       9.55397089      34.73112500      50.24764510
Cs       4.33687089      39.52162500      11.91585490
Cs       0.88022911      41.91687500       3.03535490
Cs       6.09732911      41.91687500       5.84514510
Cs       9.55397089      39.52162500      14.72564510
Cs       4.33687089      39.52162500      29.67685490
Cs       0.88022911      41.91687500      20.79635490
Cs       6.09732911      41.91687500      23.60614510
Cs       9.55397089      39.52162500      32.48664510
Cs       4.33687089      39.52162500      47.43785490
Cs       0.88022911      41.91687500      38.55735490
Cs       6.09732911      41.91687500      41.36714510
Cs       9.55397089      39.52162500      50.24764510
Cs       4.33687089      44.31212500      11.91585490
Cs       0.88022911      46.70737500       3.03535490
Cs       6.09732911      46.70737500       5.84514510
Cs       9.55397089      44.31212500      14.72564510
Cs       4.33687089      44.31212500      29.67685490
Cs       0.88022911      46.70737500      20.79635490
Cs       6.09732911      46.70737500      23.60614510
Cs       9.55397089      44.31212500      32.48664510
Cs       4.33687089      44.31212500      47.43785490
Cs       0.88022911      46.70737500      38.55735490
Cs       6.09732911      46.70737500      41.36714510
Cs       9.55397089      44.31212500      50.24764510
Cs       4.33687089      49.10262500      11.91585490
Cs       0.88022911      51.49787500       3.03535490
Cs       6.09732911      51.49787500       5.84514510
Cs       9.55397089      49.10262500      14.72564510
Cs       4.33687089      49.10262500      29.67685490
Cs       0.88022911      51.49787500      20.79635490
Cs       6.09732911      51.49787500      23.60614510
Cs       9.55397089      49.10262500      32.48664510
Cs       4.33687089      49.10262500      47.43785490
Cs       0.88022911      51.49787500      38.55735490
Cs       6.09732911      51.49787500      41.36714510
Cs       9.55397089      49.10262500      50.24764510
Cs       4.33687089      53.89312500      11.91585490
Cs       0.88022911      56.28837500       3.03535490
Cs       6.09732911      56.28837500       5.84514510
Cs       9.55397089      53.89312500      14.72564510
Cs       4.33687089      53.89312500      29.67685490
Cs       0.88022911      56.28837500      20.79635490
Cs       6.09732911      56.28837500      23.60614510
Cs       9.55397089      53.89312500      32.48664510
Cs       4.33687089      53.89312500      47.43785490
Cs       0.88022911      56.28837500      38.55735490
Cs       6.09732911      56.28837500      41.36714510
Cs       9.55397089      53.89312500      50.24764510
Cs      14.77107089       1.19762500      11.91585490
Cs      11.31442911       3.59287500       3.03535490
Cs      16.53152911       3.59287500       5.84514510
Cs      19.98817089       1.19762500      14.72564510
Cs      14.77107089       1.19762500      29.67685490
Cs      11.31442911       3.59287500      20.79635490
Cs      16.53152911       3.59287500      23.60614510
Cs      19.98817089       1.19762500      32.48664510
Cs      14.77107089       1.19762500      47.43785490
Cs      11.31442911       3.59287500      38.55735490
Cs      16.53152911       3.59287500      41.36714510
Cs      19.98817089       1.19762500      50.24764510
Cs      14.77107089       5.98812500      11.91585490
Cs      11.31442911       8.38337500       3.03535490
Cs      16.53152911       8.38337500       5.84514510
Cs      19.98817089       5.98812500      14.72564510
Cs      14.77107089       5.98812500      29.67685490
Cs      11.31442911       8.38337500      20.79635490
Cs      16.53152911       8.38337500      23.60614510
Cs      19.98817089       5.98812500      32.48664510
Cs      14.77107089       5.98812500      47.43785490
Cs      11.31442911       8.38337500      38.55735490
Cs      16.53152911       8.38337500      41.36714510
Cs      19.98817089       5.98812500      50.24764510
Cs      14.77107089      10.77862500      11.91585490
Cs      11.31442911      13.17387500       3.03535490
Cs      16.53152911      13.17387500       5.84514510
Cs      19.98817089      10.77862500      14.72564510
Cs      14.77107089      10.77862500      29.67685490
Cs      11.31442911      13.17387500      20.79635490
Cs      16.53152911      13.17387500      23.60614510
Cs      19.98817089      10.77862500      32.48664510
Cs      14.77107089      10.77862500      47.43785490
Cs      11.31442911      13.17387500      38.55735490
Cs      16.53152911      13.17387500      41.36714510
Cs      19.98817089      10.77862500      50.24764510
Cs      14.77107089      15.56912500      11.91585490
Cs      11.31442911      17.96437500       3.03535490
Cs      16.53152911      17.96437500       5.84514510
Cs      19.98817089      15.56912500      14.72564510
Cs      14.77107089      15.56912500      29.67685490
Cs      11.31442911      17.96437500      20.79635490
Cs      16.53152911      17.96437500      23.60614510
Cs      19.98817089      15.56912500      32.48664510
Cs      14.77107089      15.56912500      47.43785490
Cs      11.31442911      17.96437500      38.55735490
Cs      16.53152911      17.96437500      41.36714510
Cs      19.98817089      15.56912500      50.24764510
Cs      14.77107089      20.35962500      11.91585490
Cs      11.31442911      22.75487500       3.03535490
Cs      16.53152911      22.75487500       5.84514510
Cs      19.98817089      20.35962500      14.72564510
Cs      14.77107089      20.35962500      29.67685490
Cs      11.31442911      22.75487500      20.79635490
Cs      16.53152911      22.75487500      23.60614510
Cs      19.98817089      20.35962500      32.48664510
Cs      14.77107089      20.35962500      47.43785490
Cs      11.31442911      22.75487500      38.55735490
Cs      16.53152911      22.75487500      41.36714510
Cs      19.98817089      20.35962500      50.24764510
Cs      14.77107089      25.15012500      11.91585490
Cs      11.31442911      27.54537500       3.03535490
Cs      16.53152911      27.54537500       5.84514510
Cs      19.98817089      25.15012500      14.72564510
Cs      14.77107089      25.15012500      29.67685490
Cs      11.31442911      27.54537500      20.79635490
Cs      16.53152911      27.54537500      23.60614510
Cs      19.98817089      25.15012500      32.48664510
Cs      14.77107089      25.15012500      47.43785490
Cs      11.31442911      27.54537500      38.55735490
Cs      16.53152911      27.54537500      41.36714510
Cs      19.98817089      25.15012500      50.24764510
Cs      14.77107089      29.94062500      11.91585490
Cs      11.31442911      32.33587500       3.03535490
Cs      16.53152911      32.33587500       5.84514510
Cs      19.98817089      29.94062500      14.72564510
Cs      14.77107089      29.94062500      29.67685490
Cs      11.31442911      32.33587500      20.79635490
Cs      16.53152911      32.33587500      23.60614510
Cs      19.98817089      29.94062500      32.48664510
Cs      14.77107089      29.94062500      47.43785490
Cs      11.31442911      32.33587500      38.55735490
Cs      16.53152911      32.33587500      41.36714510
Cs      19.98817089      29.94062500      50.24764510
Cs      14.77107089      34.73112500      11.91585490
Cs      11.31442911      37.12637500       3.03535490
Cs      16.53152911      37.12637500       5.84514510
Cs      19.98817089      34.73112500      14.72564510
Cs      14.77107089      34.73112500      29.67685490
Cs      11.31442911      37.12637500      20.79635490
Cs      16.53152911      37.12637500      23.60614510
Cs      19.98817089      34.73112500      32.48664510
Cs      14.77107089      34.73112500      47.43785490
Cs      11.31442911      37.12637500      38.55735490
Cs      16.53152911      37.12637500      41.36714510
Cs      19.98817089      34.73112500      50.24764510
Cs      14.77107089      39.52162500      11.91585490
Cs      11.31442911      41.91687500       3.03535490
Cs      16.53152911      41.91687500       5.84514510
Cs      19.98817089      39.52162500      14.72564510
Cs      14.77107089      39.52162500      29.67685490
Cs      11.31442911      41.91687500      20.79635490
Cs      16.53152911      41.91687500      23.60614510
Cs      19.98817089      39.52162500      32.48664510
Cs      14.77107089      39.52162500      47.43785490
Cs      11.31442911      41.91687500      38.55735490
Cs      16.53152911      41.91687500      41.36714510
Cs      19.98817089      39.52162500      50.24764510
Cs      14.77107089      44.31212500      11.91585490
Cs      11.31442911      46.70737500       3.03535490
Cs      16.53152911      46.70737500       5.84514510
Cs      19.98817089      44.31212500      14.72564510
Cs      14.77107089      44.31212500      29.67685490
Cs      11.31442911      46.70737500      20.79635490
Cs      16.53152911      46.70737500      23.60614510
Cs      19.98817089      44.31212500      32.48664510
Cs      14.77107089      44.31212500      47.43785490
Cs      11.31442911      46.70737500      38.55735490
Cs      16.53152911      46.70737500      41.36714510
Cs      19.98817089      44.31212500      50.24764510
Cs      14.77107089      49.10262500      11.91585490
Cs      11.31442911      51.49787500       3.03535490
Cs      16.53152911      51.49787500       5.84514510
Cs      19.98817089      49.10262500      14.72564510
Cs      14.77107089      49.10262500      29.67685490
Cs      11.31442911      51.49787500      20.79635490
Cs      16.53152911      51.49787500      23.60614510
Cs      19.98817089      49.10262500      32.48664510
Cs      14.77107089      49.10262500      47.43785490
Cs      11.31442911      51.49787500      38.55735490
Cs      16.53152911      51.49787500      41.36714510
Cs      19.98817089      49.10262500      50.24764510
Cs      14.77107089      53.89312500      11.91585490
Cs      11.31442911      56.28837500       3.03535490
Cs      16.53152911      56.28837500       5.84514510
Cs      19.98817089      53.89312500      14.72564510
Cs      14.77107089      53.89312500      29.67685490
Cs      11.31442911      56.28837500      20.79635490
Cs      16.53152911      56.28837500      23.60614510
Cs      19.98817089      53.89312500      32.48664510
Cs      14.77107089      53.89312500      47.43785490
Cs      11.31442911      56.28837500      38.55735490
Cs      16.53152911      56.28837500      41.36714510
Cs      19.98817089      53.89312500      50.24764510
Cs      25.20527089       1.19762500      11.91585490
Cs      21.74862911       3.59287500       3.03535490
Cs      26.96572911       3.59287500       5.84514510
Cs      30.42237089       1.19762500      14.72564510
Cs      25.20527089       1.19762500      29.67685490
Cs      21.74862911       3.59287500      20.79635490
Cs      26.96572911       3.59287500      23.60614510
Cs      30.42237089       1.19762500      32.48664510
Cs      25.20527089       1.19762500      47.43785490
Cs      21.74862911       3.59287500      38.55735490
Cs      26.96572911       3.59287500      41.36714510
Cs      30.42237089       1.19762500      50.24764510
Cs      25.20527089       5.98812500      11.91585490
Cs      21.74862911       8.38337500       3.03535490
Cs      26.96572911       8.38337500       5.84514510
Cs      30.42237089       5.98812500      14.72564510
Cs      25.20527089       5.98812500      29.67685490
Cs      21.74862911       8.38337500      20.79635490
Cs      26.96572911       8.38337500      23.60614510
Cs      30.42237089       5.98812500      32.48664510
Cs      25.20527089       5.98812500      47.43785490
Cs      21.74862911       8.38337500      38.55735490
Cs      26.96572911       8.38337500      41.36714510
Cs      30.42237089       5.98812500      50.24764510
Cs      25.20527089      10.77862500      11.91585490
Cs      21.74862911      13.17387500       3.03535490
Cs      26.96572911      13.17387500       5.84514510
Cs      30.42237089      10.77862500      14.72564510
Cs      25.20527089      10.77862500      29.67685490
Cs      21.74862911      13.17387500      20.79635490
Cs      26.96572911      13.17387500      23.60614510
Cs      30.42237089      10.77862500      32.48664510
Cs      25.20527089      10.77862500      47.43785490
Cs      21.74862911      13.17387500      38.55735490
Cs      26.96572911      13.17387500      41.36714510
Cs      30.42237089      10.77862500      50.24764510
Cs      25.20527089      15.56912500      11.91585490
Cs      21.74862911      17.96437500       3.03535490
Cs      26.96572911      17.96437500       5.84514510
Cs      30.42237089      15.56912500      14.72564510
Cs      25.20527089      15.56912500      29.67685490
Cs      21.74862911      17.96437500      20.79635490
Cs      26.96572911      17.96437500      23.60614510
Cs      30.42237089      15.56912500      32.48664510
Cs      25.20527089      15.56912500      47.43785490
Cs      21.74862911      17.96437500      38.55735490
Cs      26.96572911      17.96437500      41.36714510
Cs      30.42237089      15.56912500      50.24764510
Cs      25.20527089      20.35962500      11.91585490
Cs      21.74862911      22.75487500       3.03535490
Cs      26.96572911      22.75487500       5.84514510
Cs      30.42237089      20.35962500      14.72564510
Cs      25.20527089      20.35962500      29.67685490
Cs      21.74862911      22.75487500      20.79635490
Cs      26.96572911      22.75487500      23.60614510
Cs      30.42237089      20.35962500      32.48664510
Cs      25.20527089      20.35962500      47.43785490
Cs      21.74862911      22.75487500      38.55735490
Cs      26.96572911      22.75487500      41.36714510
Cs      30.42237089      20.35962500      50.24764510
Cs      25.20527089      25.15012500      11.91585490
Cs      21.74862911      27.54537500       3.03535490
Cs      26.96572911      27.54537500       5.84514510
Cs      30.42237089      25.15012500      14.72564510
Cs      25.20527089      25.15012500      29.67685490
Cs      21.74862911      27.54537500      20.79635490
Cs      26.96572911      27.54537500      23.60614510
Cs      30.42237089      25.15012500      32.48664510
Cs      25.20527089      25.15012500      47.43785490
Cs      21.74862911      27.54537500      38.55735490
Cs      26.96572911      27.54537500      41.36714510
Cs      30.42237089      25.15012500      50.24764510
Cs      25.20527089      29.94062500      11.91585490
Cs      21.74862911      32.33587500       3.03535490
Cs      26.96572911      32.33587500       5.84514510
Cs      30.42237089      29.94062500      14.72564510
Cs      25.20527089      29.94062500      29.67685490
Cs      21.74862911      32.33587500      20.79635490
Cs      26.96572911      32.33587500      23.60614510
Cs      30.42237089      29.94062500      32.48664510
Cs      25.20527089      29.94062500      47.43785490
Cs      21.74862911      32.33587500      38.55735490
Cs      26.96572911      32.33587500      41.36714510
Cs      30.42237089      29.94062500      50.24764510
Cs      25.20527089      34.73112500      11.91585490
Cs      21.74862911      37.12637500       3.03535490
Cs      26.96572911      37.12637500       5.84514510
Cs      30.42237089      34.73112500      14.72564510
Cs      25.20527089      34.73112500      29.67685490
Cs      21.74862911      37.12637500      20.79635490
Cs      26.96572911      37.12637500      23.60614510
Cs      30.42237089      34.73112500      32.48664510
Cs      25.20527089      34.73112500      47.43785490
Cs      21.74862911      37.12637500      38.55735490
Cs      26.96572911      37.12637500      41.36714510
Cs      30.42237089      34.73112500      50.24764510
Cs      25.20527089      39.52162500      11.91585490
Cs      21.74862911      41.91687500       3.03535490
Cs      26.96572911      41.91687500       5.84514510
Cs      30.42237089      39.52162500      14.72564510
Cs      25.20527089      39.52162500      29.67685490
Cs      21.74862911      41.91687500      20.79635490
Cs      26.96572911      41.91687500      23.60614510
Cs      30.42237089      39.52162500      32.48664510
Cs      25.20527089      39.52162500      47.43785490
Cs      21.74862911      41.91687500      38.55735490
Cs      26.96572911      41.91687500      41.36714510
Cs      30.42237089      39.52162500      50.24764510
Cs      25.20527089      44.31212500      11.91585490
Cs      21.74862911      46.70737500       3.03535490
Cs      26.96572911      46.70737500       5.84514510
Cs      30.42237089      44.31212500      14.72564510
Cs      25.20527089      44.31212500      29.67685490
Cs      21.74862911      46.70737500      20.79635490
Cs      26.96572911      46.70737500      23.60614510
Cs      30.42237089      44.31212500      32.48664510
Cs      25.20527089      44.31212500      47.43785490
Cs      21.74862911      46.70737500      38.55735490
Cs      26.96572911      46.70737500      41.36714510
Cs      30.42237089      44.31212500      50.24764510
Cs      25.20527089      49.10262500      11.91585490
Cs      21.74862911      51.49787500       3.03535490
Cs      26.96572911      51.49787500       5.84514510
Cs      30.42237089      49.10262500      14.72564510
Cs      25.20527089      49.10262500      29.67685490
Cs      21.74862911      51.49787500      20.79635490
Cs      26.96572911      51.49787500      23.60614510
Cs      30.42237089      49.10262500      32.48664510
Cs      25.20527089      49.10262500      47.43785490
Cs      21.74862911      51.49787500      38.55735490
Cs      26.96572911      51.49787500      41.36714510
Cs      30.42237089      49.10262500      50.24764510
Cs      25.20527089      53.89312500      11.91585490
Cs      21.74862911      56.28837500       3.03535490
Cs      26.96572911      56.28837500       5.84514510
Cs      30.42237089      53.89312500      14.72564510
Cs      25.20527089      53.89312500      29.67685490
Cs      21.74862911      56.28837500      20.79635490
Cs      26.96572911      56.28837500      23.60614510
Cs      30.42237089      53.89312500      32.48664510
Cs      25.20527089      53.89312500      47.43785490
Cs      21.74862911      56.28837500      38.55735490
Cs      26.96572911      56.28837500      41.36714510
Cs      30.42237089      53.89312500      50.24764510
Pb       1.67354134       1.19762500       7.77878517
Pb       3.54355866       3.59287500      16.65928517
Pb       8.76065866       3.59287500       9.98221483
Pb       6.89064134       1.19762500       1.10171483
Pb       1.67354134       1.19762500      25.53978517
Pb       3.54355866       3.59287500      34.42028517
Pb       8.76065866       3.59287500      27.74321483
Pb       6.89064134       1.19762500      18.86271483
Pb       1.67354134       1.19762500      43.30078517
Pb       3.54355866       3.59287500      52.18128517
Pb       8.76065866       3.59287500      45.50421483
Pb       6.89064134       1.19762500      36.62371483
Pb       1.67354134       5.98812500       7.77878517
Pb       3.54355866       8.38337500      16.65928517
Pb       8.76065866       8.38337500       9.98221483
Pb       6.89064134       5.98812500       1.10171483
Pb       1.67354134       5.98812500      25.53978517
Pb       3.54355866       8.38337500      34.42028517
Pb       8.76065866       8.38337500      27.74321483
Pb       6.89064134       5.98812500      18.86271483
Pb       1.67354134       5.98812500      43.30078517
Pb       3.54355866       8.38337500      52.18128517
Pb       8.76065866       8.38337500      45.50421483
Pb       6.89064134       5.98812500      36.62371483
Pb       1.67354134      10.77862500       7.77878517
Pb       3.54355866      13.17387500      16.65928517
Pb       8.76065866      13.17387500       9.98221483
Pb       6.89064134      10.77862500       1.10171483
Pb       1.67354134      10.77862500      25.53978517
Pb       3.54355866      13.17387500      34.42028517
Pb       8.76065866      13.17387500      27.74321483
Pb       6.89064134      10.77862500      18.86271483
Pb       1.67354134      10.77862500      43.30078517
Pb       3.54355866      13.17387500      52.18128517
Pb       8.76065866      13.17387500      45.50421483
Pb       6.89064134      10.77862500      36.62371483
Pb       1.67354134      15.56912500       7.77878517
Pb       3.54355866      17.96437500      16.65928517
Pb       8.76065866      17.96437500       9.98221483
Pb       6.89064134      15.56912500       1.10171483
Pb       1.67354134      15.56912500      25.53978517
Pb       3.54355866      17.96437500      34.42028517
Pb       8.76065866      17.96437500      27.74321483
Pb       6.89064134      15.56912500      18.86271483
Pb       1.67354134      15.56912500      43.30078517
Pb       3.54355866      17.96437500      52.18128517
Pb       8.76065866      17.96437500      45.50421483
Pb       6.89064134      15.56912500      36.62371483
Pb       1.67354134      20.35962500       7.77878517
Pb       3.54355866      22.75487500      16.65928517
Pb       8.76065866      22.75487500       9.98221483
Pb       6.89064134      20.35962500       1.10171483
Pb       1.67354134      20.35962500      25.53978517
Pb       3.54355866      22.75487500      34.42028517
Pb       8.76065866      22.75487500      27.74321483
Pb       6.89064134      20.35962500      18.86271483
Pb       1.67354134      20.35962500      43.30078517
Pb       3.54355866      22.75487500      52.18128517
Pb       8.76065866      22.75487500      45.50421483
Pb       6.89064134      20.35962500      36.62371483
Pb       1.67354134      25.15012500       7.77878517
Pb       3.54355866      27.54537500      16.65928517
Pb       8.76065866      27.54537500       9.98221483
Pb       6.89064134      25.15012500       1.10171483
Pb       1.67354134      25.15012500      25.53978517
Pb       3.54355866      27.54537500      34.42028517
Pb       8.76065866      27.54537500      27.74321483
Pb       6.89064134      25.15012500      18.86271483
Pb       1.67354134      25.15012500      43.30078517
Pb       3.54355866      27.54537500      52.18128517
Pb       8.76065866      27.54537500      45.50421483
Pb       6.89064134      25.15012500      36.62371483
Pb       1.67354134      29.94062500       7.77878517
Pb       3.54355866      32.33587500      16.65928517
Pb       8.76065866      32.33587500       9.98221483
Pb       6.89064134      29.94062500       1.10171483
Pb       1.67354134      29.94062500      25.53978517
Pb       3.54355866      32.33587500      34.42028517
Pb       8.76065866      32.33587500      27.74321483
Pb       6.89064134      29.94062500      18.86271483
Pb       1.67354134      29.94062500      43.30078517
Pb       3.54355866      32.33587500      52.18128517
Pb       8.76065866      32.33587500      45.50421483
Pb       6.89064134      29.94062500      36.62371483
Pb       1.67354134      34.73112500       7.77878517
Pb       3.54355866      37.12637500      16.65928517
Pb       8.76065866      37.12637500       9.98221483
Pb       6.89064134      34.73112500       1.10171483
Pb       1.67354134      34.73112500      25.53978517
Pb       3.54355866      37.12637500      34.42028517
Pb       8.76065866      37.12637500      27.74321483
Pb       6.89064134      34.73112500      18.86271483
Pb       1.67354134      34.73112500      43.30078517
Pb       3.54355866      37.12637500      52.18128517
Pb       8.76065866      37.12637500      45.50421483
Pb       6.89064134      34.73112500      36.62371483
Pb       1.67354134      39.52162500       7.77878517
Pb       3.54355866      41.91687500      16.65928517
Pb       8.76065866      41.91687500       9.98221483
Pb       6.89064134      39.52162500       1.10171483
Pb       1.67354134      39.52162500      25.53978517
Pb       3.54355866      41.91687500      34.42028517
Pb       8.76065866      41.91687500      27.74321483
Pb       6.89064134      39.52162500      18.86271483
Pb       1.67354134      39.52162500      43.30078517
Pb       3.54355866      41.91687500      52.18128517
Pb       8.76065866      41.91687500      45.50421483
Pb       6.89064134      39.52162500      36.62371483
Pb       1.67354134      44.31212500       7.77878517
Pb       3.54355866      46.70737500      16.65928517
Pb       8.76065866      46.70737500       9.98221483
Pb       6.89064134      44.31212500       1.10171483
Pb       1.67354134      44.31212500      25.53978517
Pb       3.54355866      46.70737500      34.42028517
Pb       8.76065866      46.70737500      27.74321483
Pb       6.89064134      44.31212500      18.86271483
Pb       1.67354134      44.31212500      43.30078517
Pb       3.54355866      46.70737500      52.18128517
Pb       8.76065866      46.70737500      45.50421483
Pb       6.89064134      44.31212500      36.62371483
Pb       1.67354134      49.10262500       7.77878517
Pb       3.54355866      51.49787500      16.65928517
Pb       8.76065866      51.49787500       9.98221483
Pb       6.89064134      49.10262500       1.10171483
Pb       1.67354134      49.10262500      25.53978517
Pb       3.54355866      51.49787500      34.42028517
Pb       8.76065866      51.49787500      27.74321483
Pb       6.89064134      49.10262500      18.86271483
Pb       1.67354134      49.10262500      43.30078517
Pb       3.54355866      51.49787500      52.18128517
Pb       8.76065866      51.49787500      45.50421483
Pb       6.89064134      49.10262500      36.62371483
Pb       1.67354134      53.89312500       7.77878517
Pb       3.54355866      56.28837500      16.65928517
Pb       8.76065866      56.28837500       9.98221483
Pb       6.89064134      53.89312500       1.10171483
Pb       1.67354134      53.89312500      25.53978517
Pb       3.54355866      56.28837500      34.42028517
Pb       8.76065866      56.28837500      27.74321483
Pb       6.89064134      53.89312500      18.86271483
Pb       1.67354134      53.89312500      43.30078517
Pb       3.54355866      56.28837500      52.18128517
Pb       8.76065866      56.28837500      45.50421483
Pb       6.89064134      53.89312500      36.62371483
Pb      12.10774134       1.19762500       7.77878517
Pb      13.97775866       3.59287500      16.65928517
Pb      19.19485866       3.59287500       9.98221483
Pb      17.32484134       1.19762500       1.10171483
Pb      12.10774134       1.19762500      25.53978517
Pb      13.97775866       3.59287500      34.42028517
Pb      19.19485866       3.59287500      27.74321483
Pb      17.32484134       1.19762500      18.86271483
Pb      12.10774134       1.19762500      43.30078517
Pb      13.97775866       3.59287500      52.18128517
Pb      19.19485866       3.59287500      45.50421483
Pb      17.32484134       1.19762500      36.62371483
Pb      12.10774134       5.98812500       7.77878517
Pb      13.97775866       8.38337500      16.65928517
Pb      19.19485866       8.38337500       9.98221483
Pb      17.32484134       5.98812500       1.10171483
Pb      12.10774134       5.98812500      25.53978517
Pb      13.97775866       8.38337500      34.42028517
Pb      19.19485866       8.38337500      27.74321483
Pb      17.32484134       5.98812500      18.86271483
Pb      12.10774134       5.98812500      43.30078517
Pb      13.97775866       8.38337500      52.18128517
Pb      19.19485866       8.38337500      45.50421483
Pb      17.32484134       5.98812500      36.62371483
Pb      12.10774134      10.77862500       7.77878517
Pb      13.97775866      13.17387500      16.65928517
Pb      19.19485866      13.17387500       9.98221483
Pb      17.32484134      10.77862500       1.10171483
Pb      12.10774134      10.77862500      25.53978517
Pb      13.97775866      13.17387500      34.42028517
Pb      19.19485866      13.17387500      27.74321483
Pb      17.32484134      10.77862500      18.86271483
Pb      12.10774134      10.77862500      43.30078517
Pb      13.97775866      13.17387500      52.18128517
Pb      19.19485866      13.17387500      45.50421483
Pb      17.32484134      10.77862500      36.62371483
Pb      12.10774134      15.56912500       7.77878517
Pb      13.97775866      17.96437500      16.65928517
Pb      19.19485866      17.96437500       9.98221483
Pb      17.32484134      15.56912500       1.10171483
Pb      12.10774134      15.56912500      25.53978517
Pb      13.97775866      17.96437500      34.42028517
Pb      19.19485866      17.96437500      27.74321483
Pb      17.32484134      15.56912500      18.86271483
Pb      12.10774134      15.56912500      43.30078517
Pb      13.97775866      17.96437500      52.18128517
Pb      19.19485866      17.96437500      45.50421483
Pb      17.32484134      15.56912500      36.62371483
Pb      12.10774134      20.35962500       7.77878517
Pb      13.97775866      22.75487500      16.65928517
Pb      19.19485866      22.75487500       9.98221483
Pb      17.32484134      20.35962500       1.10171483
Pb      12.10774134      20.35962500      25.53978517
Pb      13.97775866      22.75487500      34.42028517
Pb      19.19485866      22.75487500      27.74321483
Pb      17.32484134      20.35962500      18.86271483
Pb      12.10774134      20.35962500      43.30078517
Pb      13.97775866      22.75487500      52.18128517
Pb      19.19485866      22.75487500      45.50421483
Pb      17.32484134      20.35962500      36.62371483
Pb      12.10774134      25.15012500       7.77878517
Pb      13.97775866      27.54537500      16.65928517
Pb      19.19485866      27.54537500       9.98221483
Pb      17.32484134      25.15012500       1.10171483
Pb      12.10774134      25.15012500      25.53978517
Pb      13.97775866      27.54537500      34.42028517
Pb      19.19485866      27.54537500      27.74321483
Pb      17.32484134      25.15012500      18.86271483
Pb      12.10774134      25.15012500      43.30078517
Pb      13.97775866      27.54537500      52.18128517
Pb      19.19485866      27.54537500      45.50421483
Pb      17.32484134      25.15012500      36.62371483
Pb      12.10774134      29.94062500       7.77878517
Pb      13.97775866      32.33587500      16.65928517
Pb      19.19485866      32.33587500       9.98221483
Pb      17.32484134      29.94062500       1.10171483
Pb      12.10774134      29.94062500      25.53978517
Pb      13.97775866      32.33587500      34.42028517
Pb      19.19485866      32.33587500      27.74321483
Pb      17.32484134      29.94062500      18.86271483
Pb      12.10774134      29.94062500      43.30078517
Pb      13.97775866      32.33587500      52.18128517
Pb      19.19485866      32.33587500      45.50421483
Pb      17.32484134      29.94062500      36.62371483
Pb      12.10774134      34.73112500       7.77878517
Pb      13.97775866      37.12637500      16.65928517
Pb      19.19485866      37.12637500       9.98221483
Pb      17.32484134      34.73112500       1.10171483
Pb      12.10774134      34.73112500      25.53978517
Pb      13.97775866      37.12637500      34.42028517
Pb      19.19485866      37.12637500      27.74321483
Pb      17.32484134      34.73112500      18.86271483
Pb      12.10774134      34.73112500      43.30078517
Pb      13.97775866      37.12637500      52.18128517
Pb      19.19485866      37.12637500      45.50421483
Pb      17.32484134      34.73112500      36.62371483
Pb      12.10774134      39.52162500       7.77878517
Pb      13.97775866      41.91687500      16.65928517
Pb      19.19485866      41.91687500       9.98221483
Pb      17.32484134      39.52162500       1.10171483
Pb      12.10774134      39.52162500      25.53978517
Pb      13.97775866      41.91687500      34.42028517
Pb      19.19485866      41.91687500      27.74321483
Pb      17.32484134      39.52162500      18.86271483
Pb      12.10774134      39.52162500      43.30078517
Pb      13.97775866      41.91687500      52.18128517
Pb      19.19485866      41.91687500      45.50421483
Pb      17.32484134      39.52162500      36.62371483
Pb      12.10774134      44.31212500       7.77878517
Pb      13.97775866      46.70737500      16.65928517
Pb      19.19485866      46.70737500       9.98221483
Pb      17.32484134      44.31212500       1.10171483
Pb      12.10774134      44.31212500      25.53978517
Pb      13.97775866      46.70737500      34.42028517
Pb      19.19485866      46.70737500      27.74321483
Pb      17.32484134      44.31212500      18.86271483
Pb      12.10774134      44.31212500      43.30078517
Pb      13.97775866      46.70737500      52.18128517
Pb      19.19485866      46.70737500      45.50421483
Pb      17.32484134      44.31212500      36.62371483
Pb      12.10774134      49.10262500       7.77878517
Pb      13.97775866      51.49787500      16.65928517
Pb      19.19485866      51.49787500       9.98221483
Pb      17.32484134      49.10262500       1.10171483
Pb      12.10774134      49.10262500      25.53978517
Pb      13.97775866      51.49787500      34.42028517
Pb      19.19485866      51.49787500      27.74321483
Pb      17.32484134      49.10262500      18.86271483
Pb      12.10774134      49.10262500      43.30078517
Pb      13.97775866      51.49787500      52.18128517
Pb      19.19485866      51.49787500      45.50421483
Pb      17.32484134      49.10262500      36.62371483
Pb      12.10774134      53.89312500       7.77878517
Pb      13.97775866      56.28837500      16.65928517
Pb      19.19485866      56.28837500       9.98221483
Pb      17.32484134      53.89312500       1.10171483
Pb      12.10774134      53.89312500      25.53978517
Pb      13.97775866      56.28837500      34.42028517
Pb      19.19485866      56.28837500      27.74321483
Pb      17.32484134      53.89312500      18.86271483
Pb      12.10774134      53.89312500      43.30078517
Pb      13.97775866      56.28837500      52.18128517
Pb      19.19485866      56.28837500      45.50421483
Pb      17.32484134      53.89312500      36.62371483
Pb      22.54194134       1.19762500       7.77878517
Pb      24.41195866       3.59287500      16.65928517
Pb      29.62905866       3.59287500       9.98221483
Pb      27.75904134       1.19762500       1.10171483
Pb      22.54194134       1.19762500      25.53978517
Pb      24.41195866       3.59287500      34.42028517
Pb      29.62905866       3.59287500      27.74321483
Pb      27.75904134       1.19762500      18.86271483
Pb      22.54194134       1.19762500      43.30078517
Pb      24.41195866       3.59287500      52.18128517
Pb      29.62905866       3.59287500      45.50421483
Pb      27.75904134       1.19762500      36.62371483
Pb      22.54194134       5.98812500       7.77878517
Pb      24.41195866       8.38337500      16.65928517
Pb      29.62905866       8.38337500       9.98221483
Pb      27.75904134       5.98812500       1.10171483
Pb      22.54194134       5.98812500      25.53978517
Pb      24.41195866       8.38337500      34.42028517
Pb      29.62905866       8.38337500      27.74321483
Pb      27.75904134       5.98812500      18.86271483
Pb      22.54194134       5.98812500      43.30078517
Pb      24.41195866       8.38337500      52.18128517
Pb      29.62905866       8.38337500      45.50421483
Pb      27.75904134       5.98812500      36.62371483
Pb      22.54194134      10.77862500       7.77878517
Pb      24.41195866      13.17387500      16.65928517
Pb      29.62905866      13.17387500       9.98221483
Pb      27.75904134      10.77862500       1.10171483
Pb      22.54194134      10.77862500      25.53978517
Pb      24.41195866      13.17387500      34.42028517
Pb      29.62905866      13.17387500      27.74321483
Pb      27.75904134      10.77862500      18.86271483
Pb      22.54194134      10.77862500      43.30078517
Pb      24.41195866      13.17387500      52.18128517
Pb      29.62905866      13.17387500      45.50421483
Pb      27.75904134      10.77862500      36.62371483
Pb      22.54194134      15.56912500       7.77878517
Pb      24.41195866      17.96437500      16.65928517
Pb      29.62905866      17.96437500       9.98221483
Pb      27.75904134      15.56912500       1.10171483
Pb      22.54194134      15.56912500      25.53978517
Pb      24.41195866      17.96437500      34.42028517
Pb      29.62905866      17.96437500      27.74321483
Pb      27.75904134      15.56912500      18.86271483
Pb      22.54194134      15.56912500      43.30078517
Pb      24.41195866      17.96437500      52.18128517
Pb      29.62905866      17.96437500      45.50421483
Pb      27.75904134      15.56912500      36.62371483
Pb      22.54194134      20.35962500       7.77878517
Pb      24.41195866      22.75487500      16.65928517
Pb      29.62905866      22.75487500       9.98221483
Pb      27.75904134      20.35962500       1.10171483
Pb      22.54194134      20.35962500      25.53978517
Pb      24.41195866      22.75487500      34.42028517
Pb      29.62905866      22.75487500      27.74321483
Pb      27.75904134      20.35962500      18.86271483
Pb      22.54194134      20.35962500      43.30078517
Pb      24.41195866      22.75487500      52.18128517
Pb      29.62905866      22.75487500      45.50421483
Pb      27.75904134      20.35962500      36.62371483
Pb      22.54194134      25.15012500       7.77878517
Pb      24.41195866      27.54537500      16.65928517
Pb      29.62905866      27.54537500       9.98221483
Pb      27.75904134      25.15012500       1.10171483
Pb      22.54194134      25.15012500      25.53978517
Pb      24.41195866      27.54537500      34.42028517
Pb      29.62905866      27.54537500      27.74321483
Pb      27.75904134      25.15012500      18.86271483
Pb      22.54194134      25.15012500      43.30078517
Pb      24.41195866      27.54537500      52.18128517
Pb      29.62905866      27.54537500      45.50421483
Pb      27.75904134      25.15012500      36.62371483
Pb      22.54194134      29.94062500       7.77878517
Pb      24.41195866      32.33587500      16.65928517
Pb      29.62905866      32.33587500       9.98221483
Pb      27.75904134      29.94062500       1.10171483
Pb      22.54194134      29.94062500      25.53978517
Pb      24.41195866      32.33587500      34.42028517
Pb      29.62905866      32.33587500      27.74321483
Pb      27.75904134      29.94062500      18.86271483
Pb      22.54194134      29.94062500      43.30078517
Pb      24.41195866      32.33587500      52.18128517
Pb      29.62905866      32.33587500      45.50421483
Pb      27.75904134      29.94062500      36.62371483
Pb      22.54194134      34.73112500       7.77878517
Pb      24.41195866      37.12637500      16.65928517
Pb      29.62905866      37.12637500       9.98221483
Pb      27.75904134      34.73112500       1.10171483
Pb      22.54194134      34.73112500      25.53978517
Pb      24.41195866      37.12637500      34.42028517
Pb      29.62905866      37.12637500      27.74321483
Pb      27.75904134      34.73112500      18.86271483
Pb      22.54194134      34.73112500      43.30078517
Pb      24.41195866      37.12637500      52.18128517
Pb      29.62905866      37.12637500      45.50421483
Pb      27.75904134      34.73112500      36.62371483
Pb      22.54194134      39.52162500       7.77878517
Pb      24.41195866      41.91687500      16.65928517
Pb      29.62905866      41.91687500       9.98221483
Pb      27.75904134      39.52162500       1.10171483
Pb      22.54194134      39.52162500      25.53978517
Pb      24.41195866      41.91687500      34.42028517
Pb      29.62905866      41.91687500      27.74321483
Pb      27.75904134      39.52162500      18.86271483
Pb      22.54194134      39.52162500      43.30078517
Pb      24.41195866      41.91687500      52.18128517
Pb      29.62905866      41.91687500      45.50421483
Pb      27.75904134      39.52162500      36.62371483
Pb      22.54194134      44.31212500       7.77878517
Pb      24.41195866      46.70737500      16.65928517
Pb      29.62905866      46.70737500       9.98221483
Pb      27.75904134      44.31212500       1.10171483
Pb      22.54194134      44.31212500      25.53978517
Pb      24.41195866      46.70737500      34.42028517
Pb      29.62905866      46.70737500      27.74321483
Pb      27.75904134      44.31212500      18.86271483
Pb      22.54194134      44.31212500      43.30078517
Pb      24.41195866      46.70737500      52.18128517
Pb      29.62905866      46.70737500      45.50421483
Pb      27.75904134      44.31212500      36.62371483
Pb      22.54194134      49.10262500       7.77878517
Pb      24.41195866      51.49787500      16.65928517
Pb      29.62905866      51.49787500       9.98221483
Pb      27.75904134      49.10262500       1.10171483
Pb      22.54194134      49.10262500      25.53978517
Pb      24.41195866      51.49787500      34.42028517
Pb      29.62905866      51.49787500      27.74321483
Pb      27.75904134      49.10262500      18.86271483
Pb      22.54194134      49.10262500      43.30078517
Pb      24.41195866      51.49787500      52.18128517
Pb      29.62905866      51.49787500      45.50421483
Pb      27.75904134      49.10262500      36.62371483
Pb      22.54194134      53.89312500       7.77878517
Pb      24.41195866      56.28837500      16.65928517
Pb      29.62905866      56.28837500       9.98221483
Pb      27.75904134      53.89312500       1.10171483
Pb      22.54194134      53.89312500      25.53978517
Pb      24.41195866      56.28837500      34.42028517
Pb      29.62905866      56.28837500      27.74321483
Pb      27.75904134      53.89312500      18.86271483
Pb      22.54194134      53.89312500      43.30078517
Pb      24.41195866      56.28837500      52.18128517
Pb      29.62905866      56.28837500      45.50421483
Pb      27.75904134      53.89312500      36.62371483
I        1.70307012       1.19762500       0.02841760
I        3.51402988       3.59287500       8.90891760
I        8.73112988       3.59287500      17.73258240
I        6.92017012       1.19762500       8.85208240
I        3.12086922       1.19762500       5.10255769
I        2.09623078       3.59287500      13.98305769
I        7.31333078       3.59287500      12.65844231
I        8.33796922       1.19762500       3.77794231
I        0.33295532       1.19762500      10.91395689
I        4.88414468       3.59287500       2.03345689
I       10.10124468       3.59287500       6.84704311
I        5.55005532       1.19762500      15.72754311
I        1.70307012       1.19762500      17.78941760
I        3.51402988       3.59287500      26.66991760
I        8.73112988       3.59287500      35.49358240
I        6.92017012       1.19762500      26.61308240
I        3.12086922       1.19762500      22.86355769
I        2.09623078       3.59287500      31.74405769
I        7.31333078       3.59287500      30.41944231
I        8.33796922       1.19762500      21.53894231
I        0.33295532       1.19762500      28.67495689
I        4.88414468       3.59287500      19.79445689
I       10.10124468       3.59287500      24.60804311
I        5.55005532       1.19762500      33.48854311
I        1.70307012       1.19762500      35.55041760
I        3.51402988       3.59287500      44.43091760
I        8.73112988       3.59287500      53.25458240
I        6.92017012       1.19762500      44.37408240
I        3.12086922       1.19762500      40.62455769
I        2.09623078       3.59287500      49.50505769
I        7.31333078       3.59287500      48.18044231
I        8.33796922       1.19762500      39.29994231
I        0.33295532       1.19762500      46.43595689
I        4.88414468       3.59287500      37.55545689
I       10.10124468       3.59287500      42.36904311
I        5.55005532       1.19762500      51.24954311
I        1.70307012       5.98812500       0.02841760
I        3.51402988       8.38337500       8.90891760
I        8.73112988       8.38337500      17.73258240
I        6.92017012       5.98812500       8.85208240
I        3.12086922       5.98812500       5.10255769
I        2.09623078       8.38337500      13.98305769
I        7.31333078       8.38337500      12.65844231
I        8.33796922       5.98812500       3.77794231
I        0.33295532       5.98812500      10.91395689
I        4.88414468       8.38337500       2.03345689
I       10.10124468       8.38337500       6.84704311
I        5.55005532       5.98812500      15.72754311
I        1.70307012       5.98812500      17.78941760
I        3.51402988       8.38337500      26.66991760
I        8.73112988       8.38337500      35.49358240
I        6.92017012       5.98812500      26.61308240
I        3.12086922       5.98812500      22.86355769
I        2.09623078       8.38337500      31.74405769
I        7.31333078       8.38337500      30.41944231
I        8.33796922       5.98812500      21.53894231
I        0.33295532       5.98812500      28.67495689
I        4.88414468       8.38337500      19.79445689
I       10.10124468       8.38337500      24.60804311
I        5.55005532       5.98812500      33.48854311
I        1.70307012       5.98812500      35.55041760
I        3.51402988       8.38337500      44.43091760
I        8.73112988       8.38337500      53.25458240
I        6.92017012       5.98812500      44.37408240
I        3.12086922       5.98812500      40.62455769
I        2.09623078       8.38337500      49.50505769
I        7.31333078       8.38337500      48.18044231
I        8.33796922       5.98812500      39.29994231
I        0.33295532       5.98812500      46.43595689
I        4.88414468       8.38337500      37.55545689
I       10.10124468       8.38337500      42.36904311
I        5.55005532       5.98812500      51.24954311
I        1.70307012      10.77862500       0.02841760
I        3.51402988      13.17387500       8.90891760
I        8.73112988      13.17387500      17.73258240
I        6.92017012      10.77862500       8.85208240
I        3.12086922      10.77862500       5.10255769
I        2.09623078      13.17387500      13.98305769
I        7.31333078      13.17387500      12.65844231
I        8.33796922      10.77862500       3.77794231
I        0.33295532      10.77862500      10.91395689
I        4.88414468      13.17387500       2.03345689
I       10.10124468      13.17387500       6.84704311
I        5.55005532      10.77862500      15.72754311
I        1.70307012      10.77862500      17.78941760
I        3.51402988      13.17387500      26.66991760
I        8.73112988      13.17387500      35.49358240
I        6.92017012      10.77862500      26.61308240
I        3.12086922      10.77862500      22.86355769
I        2.09623078      13.17387500      31.74405769
I        7.31333078      13.17387500      30.41944231
I        8.33796922      10.77862500      21.53894231
I        0.33295532      10.77862500      28.67495689
I        4.88414468      13.17387500      19.79445689
I       10.10124468      13.17387500      24.60804311
I        5.55005532      10.77862500      33.48854311
I        1.70307012      10.77862500      35.55041760
I        3.51402988      13.17387500      44.43091760
I        8.73112988      13.17387500      53.25458240
I        6.92017012      10.77862500      44.37408240
I        3.12086922      10.77862500      40.62455769
I        2.09623078      13.17387500      49.50505769
I        7.31333078      13.17387500      48.18044231
I        8.33796922      10.77862500      39.29994231
I        0.33295532      10.77862500      46.43595689
I        4.88414468      13.17387500      37.55545689
I       10.10124468      13.17387500      42.36904311
I        5.55005532      10.77862500      51.24954311
I        1.70307012      15.56912500       0.02841760
I        3.51402988      17.96437500       8.90891760
I        8.73112988      17.96437500      17.73258240
I        6.92017012      15.56912500       8.85208240
I        3.12086922      15.56912500       5.10255769
I        2.09623078      17.96437500      13.98305769
I        7.31333078      17.96437500      12.65844231
I        8.33796922      15.56912500       3.77794231
I        0.33295532      15.56912500      10.91395689
I        4.88414468      17.96437500       2.03345689
I       10.10124468      17.96437500       6.84704311
I        5.55005532      15.56912500      15.72754311
I        1.70307012      15.56912500      17.78941760
I        3.51402988      17.96437500      26.66991760
I        8.73112988      17.96437500      35.49358240
I        6.92017012      15.56912500      26.61308240
I        3.12086922      15.56912500      22.86355769
I        2.09623078      17.96437500      31.74405769
I        7.31333078      17.96437500      30.41944231
I        8.33796922      15.56912500      21.53894231
I        0.33295532      15.56912500      28.67495689
I        4.88414468      17.96437500      19.79445689
I       10.10124468      17.96437500      24.60804311
I        5.55005532      15.56912500      33.48854311
I        1.70307012      15.56912500      35.55041760
I        3.51402988      17.96437500      44.43091760
I        8.73112988      17.96437500      53.25458240
I        6.92017012      15.56912500      44.37408240
I        3.12086922      15.56912500      40.62455769
I        2.09623078      17.96437500      49.50505769
I        7.31333078      17.96437500      48.18044231
I        8.33796922      15.56912500      39.29994231
I        0.33295532      15.56912500      46.43595689
I        4.88414468      17.96437500      37.55545689
I       10.10124468      17.96437500      42.36904311
I        5.55005532      15.56912500      51.24954311
I        1.70307012      20.35962500       0.02841760
I        3.51402988      22.75487500       8.90891760
I        8.73112988      22.75487500      17.73258240
I        6.92017012      20.35962500       8.85208240
I        3.12086922      20.35962500       5.10255769
I        2.09623078      22.75487500      13.98305769
I        7.31333078      22.75487500      12.65844231
I        8.33796922      20.35962500       3.77794231
I        0.33295532      20.35962500      10.91395689
I        4.88414468      22.75487500       2.03345689
I       10.10124468      22.75487500       6.84704311
I        5.55005532      20.35962500      15.72754311
I        1.70307012      20.35962500      17.78941760
I        3.51402988      22.75487500      26.66991760
I        8.73112988      22.75487500      35.49358240
I        6.92017012      20.35962500      26.61308240
I        3.12086922      20.35962500      22.86355769
I        2.09623078      22.75487500      31.74405769
I        7.31333078      22.75487500      30.41944231
I        8.33796922      20.35962500      21.53894231
I        0.33295532      20.35962500      28.67495689
I        4.88414468      22.75487500      19.79445689
I       10.10124468      22.75487500      24.60804311
I        5.55005532      20.35962500      33.48854311
I        1.70307012      20.35962500      35.55041760
I        3.51402988      22.75487500      44.43091760
I        8.73112988      22.75487500      53.25458240
I        6.92017012      20.35962500      44.37408240
I        3.12086922      20.35962500      40.62455769
I        2.09623078      22.75487500      49.50505769
I        7.31333078      22.75487500      48.18044231
I        8.33796922      20.35962500      39.29994231
I        0.33295532      20.35962500      46.43595689
I        4.88414468      22.75487500      37.55545689
I       10.10124468      22.75487500      42.36904311
I        5.55005532      20.35962500      51.24954311
I        1.70307012      25.15012500       0.02841760
I        3.51402988      27.54537500       8.90891760
I        8.73112988      27.54537500      17.73258240
I        6.92017012      25.15012500       8.85208240
I        3.12086922      25.15012500       5.10255769
I        2.09623078      27.54537500      13.98305769
I        7.31333078      27.54537500      12.65844231
I        8.33796922      25.15012500       3.77794231
I        0.33295532      25.15012500      10.91395689
I        4.88414468      27.54537500       2.03345689
I       10.10124468      27.54537500       6.84704311
I        5.55005532      25.15012500      15.72754311
I        1.70307012      25.15012500      17.78941760
I        3.51402988      27.54537500      26.66991760
I        8.73112988      27.54537500      35.49358240
I        6.92017012      25.15012500      26.61308240
I        3.12086922      25.15012500      22.86355769
I        2.09623078      27.54537500      31.74405769
I        7.31333078      27.54537500      30.41944231
I        8.33796922      25.15012500      21.53894231
I        0.33295532      25.15012500      28.67495689
I        4.88414468      27.54537500      19.79445689
I       10.10124468      27.54537500      24.60804311
I        5.55005532      25.15012500      33.48854311
I        1.70307012      25.15012500      35.55041760
I        3.51402988      27.54537500      44.43091760
I        8.73112988      27.54537500      53.25458240
I        6.92017012      25.15012500      44.37408240
I        3.12086922      25.15012500      40.62455769
I        2.09623078      27.54537500      49.50505769
I        7.31333078      27.54537500      48.18044231
I        8.33796922      25.15012500      39.29994231
I        0.33295532      25.15012500      46.43595689
I        4.88414468      27.54537500      37.55545689
I       10.10124468      27.54537500      42.36904311
I        5.55005532      25.15012500      51.24954311
I        1.70307012      29.94062500       0.02841760
I        3.51402988      32.33587500       8.90891760
I        8.73112988      32.33587500      17.73258240
I        6.92017012      29.94062500       8.85208240
I        3.12086922      29.94062500       5.10255769
I        2.09623078      32.33587500      13.98305769
I        7.31333078      32.33587500      12.65844231
I        8.33796922      29.94062500       3.77794231
I        0.33295532      29.94062500      10.91395689
I        4.88414468      32.33587500       2.03345689
I       10.10124468      32.33587500       6.84704311
I        5.55005532      29.94062500      15.72754311
I        1.70307012      29.94062500      17.78941760
I        3.51402988      32.33587500      26.66991760
I        8.73112988      32.33587500      35.49358240
I        6.92017012      29.94062500      26.61308240
I        3.12086922      29.94062500      22.86355769
I        2.09623078      32.33587500      31.74405769
I        7.31333078      32.33587500      30.41944231
I        8.33796922      29.94062500      21.53894231
I        0.33295532      29.94062500      28.67495689
I        4.88414468      32.33587500      19.79445689
I       10.10124468      32.33587500      24.60804311
I        5.55005532      29.94062500      33.48854311
I        1.70307012      29.94062500      35.55041760
I        3.51402988      32.33587500      44.43091760
I        8.73112988      32.33587500      53.25458240
I        6.92017012      29.94062500      44.37408240
I        3.12086922      29.94062500      40.62455769
I        2.09623078      32.33587500      49.50505769
I        7.31333078      32.33587500      48.18044231
I        8.33796922      29.94062500      39.29994231
I        0.33295532      29.94062500      46.43595689
I        4.88414468      32.33587500      37.55545689
I       10.10124468      32.33587500      42.36904311
I        5.55005532      29.94062500      51.24954311
I        1.70307012      34.73112500       0.02841760
I        3.51402988      37.12637500       8.90891760
I        8.73112988      37.12637500      17.73258240
I        6.92017012      34.73112500       8.85208240
I        3.12086922      34.73112500       5.10255769
I        2.09623078      37.12637500      13.98305769
I        7.31333078      37.12637500      12.65844231
I        8.33796922      34.73112500       3.77794231
I        0.33295532      34.73112500      10.91395689
I        4.88414468      37.12637500       2.03345689
I       10.10124468      37.12637500       6.84704311
I        5.55005532      34.73112500      15.72754311
I        1.70307012      34.73112500      17.78941760
I        3.51402988      37.12637500      26.66991760
I        8.73112988      37.12637500      35.49358240
I        6.92017012      34.73112500      26.61308240
I        3.12086922      34.73112500      22.86355769
I        2.09623078      37.12637500      31.74405769
I        7.31333078      37.12637500      30.41944231
I        8.33796922      34.73112500      21.53894231
I        0.33295532      34.73112500      28.67495689
I        4.88414468      37.12637500      19.79445689
I       10.10124468      37.12637500      24.60804311
I        5.55005532      34.73112500      33.48854311
I        1.70307012      34.73112500      35.55041760
I        3.51402988      37.12637500      44.43091760
I        8.73112988      37.12637500      53.25458240
I        6.92017012      34.73112500      44.37408240
I        3.12086922      34.73112500      40.62455769
I        2.09623078      37.12637500      49.50505769
I        7.31333078      37.12637500      48.18044231
I        8.33796922      34.73112500      39.29994231
I        0.33295532      34.73112500      46.43595689
I        4.88414468      37.12637500      37.55545689
I       10.10124468      37.12637500      42.36904311
I        5.55005532      34.73112500      51.24954311
I        1.70307012      39.52162500       0.02841760
I        3.51402988      41.91687500       8.90891760
I        8.73112988      41.91687500      17.73258240
I        6.92017012      39.52162500       8.85208240
I        3.12086922      39.52162500       5.10255769
I        2.09623078      41.91687500      13.98305769
I        7.31333078      41.91687500      12.65844231
I        8.33796922      39.52162500       3.77794231
I        0.33295532      39.52162500      10.91395689
I        4.88414468      41.91687500       2.03345689
I       10.10124468      41.91687500       6.84704311
I        5.55005532      39.52162500      15.72754311
I        1.70307012      39.52162500      17.78941760
I        3.51402988      41.91687500      26.66991760
I        8.73112988      41.91687500      35.49358240
I        6.92017012      39.52162500      26.61308240
I        3.12086922      39.52162500      22.86355769
I        2.09623078      41.91687500      31.74405769
I        7.31333078      41.91687500      30.41944231
I        8.33796922      39.52162500      21.53894231
I        0.33295532      39.52162500      28.67495689
I        4.88414468      41.91687500      19.79445689
I       10.10124468      41.91687500      24.60804311
I        5.55005532      39.52162500      33.48854311
I        1.70307012      39.52162500      35.55041760
I        3.51402988      41.91687500      44.43091760
I        8.73112988      41.91687500      53.25458240
I        6.92017012      39.52162500      44.37408240
I        3.12086922      39.52162500      40.62455769
I        2.09623078      41.91687500      49.50505769
I        7.31333078      41.91687500      48.18044231
I        8.33796922      39.52162500      39.29994231
I        0.33295532      39.52162500      46.43595689
I        4.88414468      41.91687500      37.55545689
I       10.10124468      41.91687500      42.36904311
I        5.55005532      39.52162500      51.24954311
I        1.70307012      44.31212500       0.02841760
I        3.51402988      46.70737500       8.90891760
I        8.73112988      46.70737500      17.73258240
I        6.92017012      44.31212500       8.85208240
I        3.12086922      44.31212500       5.10255769
I        2.09623078      46.70737500      13.98305769
I        7.31333078      46.70737500      12.65844231
I        8.33796922      44.31212500       3.77794231
I        0.33295532      44.31212500      10.91395689
I        4.88414468      46.70737500       2.03345689
I       10.10124468      46.70737500       6.84704311
I        5.55005532      44.31212500      15.72754311
I        1.70307012      44.31212500      17.78941760
I        3.51402988      46.70737500      26.66991760
I        8.73112988      46.70737500      35.49358240
I        6.92017012      44.31212500      26.61308240
I        3.12086922      44.31212500      22.86355769
I        2.09623078      46.70737500      31.74405769
I        7.31333078      46.70737500      30.41944231
I        8.33796922      44.31212500      21.53894231
I        0.33295532      44.31212500      28.67495689
I        4.88414468      46.70737500      19.79445689
I       10.10124468      46.70737500      24.60804311
I        5.55005532      44.31212500      33.48854311
I        1.70307012      44.31212500      35.55041760
I        3.51402988      46.70737500      44.43091760
I        8.73112988      46.70737500      53.25458240
I        6.92017012      44.31212500      44.37408240
I        3.12086922      44.31212500      40.62455769
I        2.09623078      46.70737500      49.50505769
I        7.31333078      46.70737500      48.18044231
I        8.33796922      44.31212500      39.29994231
I        0.33295532      44.31212500      46.43595689
I        4.88414468      46.70737500      37.55545689
I       10.10124468      46.70737500      42.36904311
I        5.55005532      44.31212500      51.24954311
I        1.70307012      49.10262500       0.02841760
I        3.51402988      51.49787500       8.90891760
I        8.73112988      51.49787500      17.73258240
I        6.92017012      49.10262500       8.85208240
I        3.12086922      49.10262500       5.10255769
I        2.09623078      51.49787500      13.98305769
I        7.31333078      51.49787500      12.65844231
I        8.33796922      49.10262500       3.77794231
I        0.33295532      49.10262500      10.91395689
I        4.88414468      51.49787500       2.03345689
I       10.10124468      51.49787500       6.84704311
I        5.55005532      49.10262500      15.72754311
I        1.70307012      49.10262500      17.78941760
I        3.51402988      51.49787500      26.66991760
I        8.73112988      51.49787500      35.49358240
I        6.92017012      49.10262500      26.61308240
I        3.12086922      49.10262500      22.86355769
I        2.09623078      51.49787500      31.74405769
I        7.31333078      51.49787500      30.41944231
I        8.33796922      49.10262500      21.53894231
I        0.33295532      49.10262500      28.67495689
I        4.88414468      51.49787500      19.79445689
I       10.10124468      51.49787500      24.60804311
I        5.55005532      49.10262500      33.48854311
I        1.70307012      49.10262500      35.55041760
I        3.51402988      51.49787500      44.43091760
I        8.73112988      51.49787500      53.25458240
I        6.92017012      49.10262500      44.37408240
I        3.12086922      49.10262500      40.62455769
I        2.09623078      51.49787500      49.50505769
I        7.31333078      51.49787500      48.18044231
I        8.33796922      49.10262500      39.29994231
I        0.33295532      49.10262500      46.43595689
I        4.88414468      51.49787500      37.55545689
I       10.10124468      51.49787500      42.36904311
I        5.55005532      49.10262500      51.24954311
I        1.70307012      53.89312500       0.02841760
I        3.51402988      56.28837500       8.90891760
I        8.73112988      56.28837500      17.73258240
I        6.92017012      53.89312500       8.85208240
I        3.12086922      53.89312500       5.10255769
I        2.09623078      56.28837500      13.98305769
I        7.31333078      56.28837500      12.65844231
I        8.33796922      53.89312500       3.77794231
I        0.33295532      53.89312500      10.91395689
I        4.88414468      56.28837500       2.03345689
I       10.10124468      56.28837500       6.84704311
I        5.55005532      53.89312500      15.72754311
I        1.70307012      53.89312500      17.78941760
I        3.51402988      56.28837500      26.66991760
I        8.73112988      56.28837500      35.49358240
I        6.92017012      53.89312500      26.61308240
I        3.12086922      53.89312500      22.86355769
I        2.09623078      56.28837500      31.74405769
I        7.31333078      56.28837500      30.41944231
I        8.33796922      53.89312500      21.53894231
I        0.33295532      53.89312500      28.67495689
I        4.88414468      56.28837500      19.79445689
I       10.10124468      56.28837500      24.60804311
I        5.55005532      53.89312500      33.48854311
I        1.70307012      53.89312500      35.55041760
I        3.51402988      56.28837500      44.43091760
I        8.73112988      56.28837500      53.25458240
I        6.92017012      53.89312500      44.37408240
I        3.12086922      53.89312500      40.62455769
I        2.09623078      56.28837500      49.50505769
I        7.31333078      56.28837500      48.18044231
I        8.33796922      53.89312500      39.29994231
I        0.33295532      53.89312500      46.43595689
I        4.88414468      56.28837500      37.55545689
I       10.10124468      56.28837500      42.36904311
I        5.55005532      53.89312500      51.24954311
I       12.13727012       1.19762500       0.02841760
I       13.94822988       3.59287500       8.90891760
I       19.16532988       3.59287500      17.73258240
I       17.35437012       1.19762500       8.85208240
I       13.55506922       1.19762500       5.10255769
I       12.53043078       3.59287500      13.98305769
I       17.74753078       3.59287500      12.65844231
I       18.77216922       1.19762500       3.77794231
I       10.76715532       1.19762500      10.91395689
I       15.31834468       3.59287500       2.03345689
I       20.53544468       3.59287500       6.84704311
I       15.98425532       1.19762500      15.72754311
I       12.13727012       1.19762500      17.78941760
I       13.94822988       3.59287500      26.66991760
I       19.16532988       3.59287500      35.49358240
I       17.35437012       1.19762500      26.61308240
I       13.55506922       1.19762500      22.86355769
I       12.53043078       3.59287500      31.74405769
I       17.74753078       3.59287500      30.41944231
I       18.77216922       1.19762500      21.53894231
I       10.76715532       1.19762500      28.67495689
I       15.31834468       3.59287500      19.79445689
I       20.53544468       3.59287500      24.60804311
I       15.98425532       1.19762500      33.48854311
I       12.13727012       1.19762500      35.55041760
I       13.94822988       3.59287500      44.43091760
I       19.16532988       3.59287500      53.25458240
I       17.35437012       1.19762500      44.37408240
I       13.55506922       1.19762500      40.62455769
I       12.53043078       3.59287500      49.50505769
I       17.74753078       3.59287500      48.18044231
I       18.77216922       1.19762500      39.29994231
I       10.76715532       1.19762500      46.43595689
I       15.31834468       3.59287500      37.55545689
I       20.53544468       3.59287500      42.36904311
I       15.98425532       1.19762500      51.24954311
I       12.13727012       5.98812500       0.02841760
I       13.94822988       8.38337500       8.90891760
I       19.16532988       8.38337500      17.73258240
I       17.35437012       5.98812500       8.85208240
I       13.55506922       5.98812500       5.10255769
I       12.53043078       8.38337500      13.98305769
I       17.74753078       8.38337500      12.65844231
I       18.77216922       5.98812500       3.77794231
I       10.76715532       5.98812500      10.91395689
I       15.31834468       8.38337500       2.03345689
I       20.53544468       8.38337500       6.84704311
I       15.98425532       5.98812500      15.72754311
I       12.13727012       5.98812500      17.78941760
I       13.94822988       8.38337500      26.66991760
I       19.16532988       8.38337500      35.49358240
I       17.35437012       5.98812500      26.61308240
I       13.55506922       5.98812500      22.86355769
I       12.53043078       8.38337500      31.74405769
I       17.74753078       8.38337500      30.41944231
I       18.77216922       5.98812500      21.53894231
I       10.76715532       5.98812500      28.67495689
I       15.31834468       8.38337500      19.79445689
I       20.53544468       8.38337500      24.60804311
I       15.98425532       5.98812500      33.48854311
I       12.13727012       5.98812500      35.55041760
I       13.94822988       8.38337500      44.43091760
I       19.16532988       8.38337500      53.25458240
I       17.35437012       5.98812500      44.37408240
I       13.55506922       5.98812500      40.62455769
I       12.53043078       8.38337500      49.50505769
I       17.74753078       8.38337500      48.18044231
I       18.77216922       5.98812500      39.29994231
I       10.76715532       5.98812500      46.43595689
I       15.31834468       8.38337500      37.55545689
I       20.53544468       8.38337500      42.36904311
I       15.98425532       5.98812500      51.24954311
I       12.13727012      10.77862500       0.02841760
I       13.94822988      13.17387500       8.90891760
I       19.16532988      13.17387500      17.73258240
I       17.35437012      10.77862500       8.85208240
I       13.55506922      10.77862500       5.10255769
I       12.53043078      13.17387500      13.98305769
I       17.74753078      13.17387500      12.65844231
I       18.77216922      10.77862500       3.77794231
I       10.76715532      10.77862500      10.91395689
I       15.31834468      13.17387500       2.03345689
I       20.53544468      13.17387500       6.84704311
I       15.98425532      10.77862500      15.72754311
I       12.13727012      10.77862500      17.78941760
I       13.94822988      13.17387500      26.66991760
I       19.16532988      13.17387500      35.49358240
I       17.35437012      10.77862500      26.61308240
I       13.55506922      10.77862500      22.86355769
I       12.53043078      13.17387500      31.74405769
I       17.74753078      13.17387500      30.41944231
I       18.77216922      10.77862500      21.53894231
I       10.76715532      10.77862500      28.67495689
I       15.31834468      13.17387500      19.79445689
I       20.53544468      13.17387500      24.60804311
I       15.98425532      10.77862500      33.48854311
I       12.13727012      10.77862500      35.55041760
I       13.94822988      13.17387500      44.43091760
I       19.16532988      13.17387500      53.25458240
I       17.35437012      10.77862500      44.37408240
I       13.55506922      10.77862500      40.62455769
I       12.53043078      13.17387500      49.50505769
I       17.74753078      13.17387500      48.18044231
I       18.77216922      10.77862500      39.29994231
I       10.76715532      10.77862500      46.43595689
I       15.31834468      13.17387500      37.55545689
I       20.53544468      13.17387500      42.36904311
I       15.98425532      10.77862500      51.24954311
I       12.13727012      15.56912500       0.02841760
I       13.94822988      17.96437500       8.90891760
I       19.16532988      17.96437500      17.73258240
I       17.35437012      15.56912500       8.85208240
I       13.55506922      15.56912500       5.10255769
I       12.53043078      17.96437500      13.98305769
I       17.74753078      17.96437500      12.65844231
I       18.77216922      15.56912500       3.77794231
I       10.76715532      15.56912500      10.91395689
I       15.31834468      17.96437500       2.03345689
I       20.53544468      17.96437500       6.84704311
I       15.98425532      15.56912500      15.72754311
I       12.13727012      15.56912500      17.78941760
I       13.94822988      17.96437500      26.66991760
I       19.16532988      17.96437500      35.49358240
I       17.35437012      15.56912500      26.61308240
I       13.55506922      15.56912500      22.86355769
I       12.53043078      17.96437500      31.74405769
I       17.74753078      17.96437500      30.41944231
I       18.77216922      15.56912500      21.53894231
I       10.76715532      15.56912500      28.67495689
I       15.31834468      17.96437500      19.79445689
I       20.53544468      17.96437500      24.60804311
I       15.98425532      15.56912500      33.48854311
I       12.13727012      15.56912500      35.55041760
I       13.94822988      17.96437500      44.43091760
I       19.16532988      17.96437500      53.25458240
I       17.35437012      15.56912500      44.37408240
I       13.55506922      15.56912500      40.62455769
I       12.53043078      17.96437500      49.50505769
I       17.74753078      17.96437500      48.18044231
I       18.77216922      15.56912500      39.29994231
I       10.76715532      15.56912500      46.43595689
I       15.31834468      17.96437500      37.55545689
I       20.53544468      17.96437500      42.36904311
I       15.98425532      15.56912500      51.24954311
I       12.13727012      20.35962500       0.02841760
I       13.94822988      22.75487500       8.90891760
I       19.16532988      22.75487500      17.73258240
I       17.35437012      20.35962500       8.85208240
I       13.55506922      20.35962500       5.10255769
I       12.53043078      22.75487500      13.98305769
I       17.74753078      22.75487500      12.65844231
I       18.77216922      20.35962500       3.77794231
I       10.76715532      20.35962500      10.91395689
I       15.31834468      22.75487500       2.03345689
I       20.53544468      22.75487500       6.84704311
I       15.98425532      20.35962500      15.72754311
I       12.13727012      20.35962500      17.78941760
I       13.94822988      22.75487500      26.66991760
I       19.16532988      22.75487500      35.49358240
I       17.35437012      20.35962500      26.61308240
I       13.55506922      20.35962500      22.86355769
I       12.53043078      22.75487500      31.74405769
I       17.74753078      22.75487500      30.41944231
I       18.77216922      20.35962500      21.53894231
I       10.76715532      20.35962500      28.67495689
I       15.31834468      22.75487500      19.79445689
I       20.53544468      22.75487500      24.60804311
I       15.98425532      20.35962500      33.48854311
I       12.13727012      20.35962500      35.55041760
I       13.94822988      22.75487500      44.43091760
I       19.16532988      22.75487500      53.25458240
I       17.35437012      20.35962500      44.37408240
I       13.55506922      20.35962500      40.62455769
I       12.53043078      22.75487500      49.50505769
I       17.74753078      22.75487500      48.18044231
I       18.77216922      20.35962500      39.29994231
I       10.76715532      20.35962500      46.43595689
I       15.31834468      22.75487500      37.55545689
I       20.53544468      22.75487500      42.36904311
I       15.98425532      20.35962500      51.24954311
I       12.13727012      25.15012500       0.02841760
I       13.94822988      27.54537500       8.90891760
I       19.16532988      27.54537500      17.73258240
I       17.35437012      25.15012500       8.85208240
I       13.55506922      25.15012500       5.10255769
I       12.53043078      27.54537500      13.98305769
I       17.74753078      27.54537500      12.65844231
I       18.77216922      25.15012500       3.77794231
I       10.76715532      25.15012500      10.91395689
I       15.31834468      27.54537500       2.03345689
I       20.53544468      27.54537500       6.84704311
I       15.98425532      25.15012500      15.72754311
I       12.13727012      25.15012500      17.78941760
I       13.94822988      27.54537500      26.66991760
I       19.16532988      27.54537500      35.49358240
I       17.35437012      25.15012500      26.61308240
I       13.55506922      25.15012500      22.86355769
I       12.53043078      27.54537500      31.74405769
I       17.74753078      27.54537500      30.41944231
I       18.77216922      25.15012500      21.53894231
I       10.76715532      25.15012500      28.67495689
I       15.31834468      27.54537500      19.79445689
I       20.53544468      27.54537500      24.60804311
I       15.98425532      25.15012500      33.48854311
I       12.13727012      25.15012500      35.55041760
I       13.94822988      27.54537500      44.43091760
I       19.16532988      27.54537500      53.25458240
I       17.35437012      25.15012500      44.37408240
I       13.55506922      25.15012500      40.62455769
I       12.53043078      27.54537500      49.50505769
I       17.74753078      27.54537500      48.18044231
I       18.77216922      25.15012500      39.29994231
I       10.76715532      25.15012500      46.43595689
I       15.31834468      27.54537500      37.55545689
I       20.53544468      27.54537500      42.36904311
I       15.98425532      25.15012500      51.24954311
I       12.13727012      29.94062500       0.02841760
I       13.94822988      32.33587500       8.90891760
I       19.16532988      32.33587500      17.73258240
I       17.35437012      29.94062500       8.85208240
I       13.55506922      29.94062500       5.10255769
I       12.53043078      32.33587500      13.98305769
I       17.74753078      32.33587500      12.65844231
I       18.77216922      29.94062500       3.77794231
I       10.76715532      29.94062500      10.91395689
I       15.31834468      32.33587500       2.03345689
I       20.53544468      32.33587500       6.84704311
I       15.98425532      29.94062500      15.72754311
I       12.13727012      29.94062500      17.78941760
I       13.94822988      32.33587500      26.66991760
I       19.16532988      32.33587500      35.49358240
I       17.35437012      29.94062500      26.61308240
I       13.55506922      29.94062500      22.86355769
I       12.53043078      32.33587500      31.74405769
I       17.74753078      32.33587500      30.41944231
I       18.77216922      29.94062500      21.53894231
I       10.76715532      29.94062500      28.67495689
I       15.31834468      32.33587500      19.79445689
I       20.53544468      32.33587500      24.60804311
I       15.98425532      29.94062500      33.48854311
I       12.13727012      29.94062500      35.55041760
I       13.94822988      32.33587500      44.43091760
I       19.16532988      32.33587500      53.25458240
I       17.35437012      29.94062500      44.37408240
I       13.55506922      29.94062500      40.62455769
I       12.53043078      32.33587500      49.50505769
I       17.74753078      32.33587500      48.18044231
I       18.77216922      29.94062500      39.29994231
I       10.76715532      29.94062500      46.43595689
I       15.31834468      32.33587500      37.55545689
I       20.53544468      32.33587500      42.36904311
I       15.98425532      29.94062500      51.24954311
I       12.13727012      34.73112500       0.02841760
I       13.94822988      37.12637500       8.90891760
I       19.16532988      37.12637500      17.73258240
I       17.35437012      34.73112500       8.85208240
I       13.55506922      34.73112500       5.10255769
I       12.53043078      37.12637500      13.98305769
I       17.74753078      37.12637500      12.65844231
I       18.77216922      34.73112500       3.77794231
I       10.76715532      34.73112500      10.91395689
I       15.31834468      37.12637500       2.03345689
I       20.53544468      37.12637500       6.84704311
I       15.98425532      34.73112500      15.72754311
I       12.13727012      34.73112500      17.78941760
I       13.94822988      37.12637500      26.66991760
I       19.16532988      37.12637500      35.49358240
I       17.35437012      34.73112500      26.61308240
I       13.55506922      34.73112500      22.86355769
I       12.53043078      37.12637500      31.74405769
I       17.74753078      37.12637500      30.41944231
I       18.77216922      34.73112500      21.53894231
I       10.76715532      34.73112500      28.67495689
I       15.31834468      37.12637500      19.79445689
I       20.53544468      37.12637500      24.60804311
I       15.98425532      34.73112500      33.48854311
I       12.13727012      34.73112500      35.55041760
I       13.94822988      37.12637500      44.43091760
I       19.16532988      37.12637500      53.25458240
I       17.35437012      34.73112500      44.37408240
I       13.55506922      34.73112500      40.62455769
I       12.53043078      37.12637500      49.50505769
I       17.74753078      37.12637500      48.18044231
I       18.77216922      34.73112500      39.29994231
I       10.76715532      34.73112500      46.43595689
I       15.31834468      37.12637500      37.55545689
I       20.53544468      37.12637500      42.36904311
I       15.98425532      34.73112500      51.24954311
I       12.13727012      39.52162500       0.02841760
I       13.94822988      41.91687500       8.90891760
I       19.16532988      41.91687500      17.73258240
I       17.35437012      39.52162500       8.85208240
I       13.55506922      39.52162500       5.10255769
I       12.53043078      41.91687500      13.98305769
I       17.74753078      41.91687500      12.65844231
I       18.77216922      39.52162500       3.77794231
I       10.76715532      39.52162500      10.91395689
I       15.31834468      41.91687500       2.03345689
I       20.53544468      41.91687500       6.84704311
I       15.98425532      39.52162500      15.72754311
I       12.13727012      39.52162500      17.78941760
I       13.94822988      41.91687500      26.66991760
I       19.16532988      41.91687500      35.49358240
I       17.35437012      39.52162500      26.61308240
I       13.55506922      39.52162500      22.86355769
I       12.53043078      41.91687500      31.74405769
I       17.74753078      41.91687500      30.41944231
I       18.77216922      39.52162500      21.53894231
I       10.76715532      39.52162500      28.67495689
I       15.31834468      41.91687500      19.79445689
I       20.53544468      41.91687500      24.60804311
I       15.98425532      39.52162500      33.48854311
I       12.13727012      39.52162500      35.55041760
I       13.94822988      41.91687500      44.43091760
I       19.16532988      41.91687500      53.25458240
I       17.35437012      39.52162500      44.37408240
I       13.55506922      39.52162500      40.62455769
I       12.53043078      41.91687500      49.50505769
I       17.74753078      41.91687500      48.18044231
I       18.77216922      39.52162500      39.29994231
I       10.76715532      39.52162500      46.43595689
I       15.31834468      41.91687500      37.55545689
I       20.53544468      41.91687500      42.36904311
I       15.98425532      39.52162500      51.24954311
I       12.13727012      44.31212500       0.02841760
I       13.94822988      46.70737500       8.90891760
I       19.16532988      46.70737500      17.73258240
I       17.35437012      44.31212500       8.85208240
I       13.55506922      44.31212500       5.10255769
I       12.53043078      46.70737500      13.98305769
I       17.74753078      46.70737500      12.65844231
I       18.77216922      44.31212500       3.77794231
I       10.76715532      44.31212500      10.91395689
I       15.31834468      46.70737500       2.03345689
I       20.53544468      46.70737500       6.84704311
I       15.98425532      44.31212500      15.72754311
I       12.13727012      44.31212500      17.78941760
I       13.94822988      46.70737500      26.66991760
I       19.16532988      46.70737500      35.49358240
I       17.35437012      44.31212500      26.61308240
I       13.55506922      44.31212500      22.86355769
I       12.53043078      46.70737500      31.74405769
I       17.74753078      46.70737500      30.41944231
I       18.77216922      44.31212500      21.53894231
I       10.76715532      44.31212500      28.67495689
I       15.31834468      46.70737500      19.79445689
I       20.53544468      46.70737500      24.60804311
I       15.98425532      44.31212500      33.48854311
I       12.13727012      44.31212500      35.55041760
I       13.94822988      46.70737500      44.43091760
I       19.16532988      46.70737500      53.25458240
I       17.35437012      44.31212500      44.37408240
I       13.55506922      44.31212500      40.62455769
I       12.53043078      46.70737500      49.50505769
I       17.74753078      46.70737500      48.18044231
I       18.77216922      44.31212500      39.29994231
I       10.76715532      44.31212500      46.43595689
I       15.31834468      46.70737500      37.55545689
I       20.53544468      46.70737500      42.36904311
I       15.98425532      44.31212500      51.24954311
I       12.13727012      49.10262500       0.02841760
I       13.94822988      51.49787500       8.90891760
I       19.16532988      51.49787500      17.73258240
I       17.35437012      49.10262500       8.85208240
I       13.55506922      49.10262500       5.10255769
I       12.53043078      51.49787500      13.98305769
I       17.74753078      51.49787500      12.65844231
I       18.77216922      49.10262500       3.77794231
I       10.76715532      49.10262500      10.91395689
I       15.31834468      51.49787500       2.03345689
I       20.53544468      51.49787500       6.84704311
I       15.98425532      49.10262500      15.72754311
I       12.13727012      49.10262500      17.78941760
I       13.94822988      51.49787500      26.66991760
I       19.16532988      51.49787500      35.49358240
I       17.35437012      49.10262500      26.61308240
I       13.55506922      49.10262500      22.86355769
I       12.53043078      51.49787500      31.74405769
I       17.74753078      51.49787500      30.41944231
I       18.77216922      49.10262500      21.53894231
I       10.76715532      49.10262500      28.67495689
I       15.31834468      51.49787500      19.79445689
I       20.53544468      51.49787500      24.60804311
I       15.98425532      49.10262500      33.48854311
I       12.13727012      49.10262500      35.55041760
I       13.94822988      51.49787500      44.43091760
I       19.16532988      51.49787500      53.25458240
I       17.35437012      49.10262500      44.37408240
I       13.55506922      49.10262500      40.62455769
I       12.53043078      51.49787500      49.50505769
I       17.74753078      51.49787500      48.18044231
I       18.77216922      49.10262500      39.29994231
I       10.76715532      49.10262500      46.43595689
I       15.31834468      51.49787500      37.55545689
I       20.53544468      51.49787500      42.36904311
I       15.98425532      49.10262500      51.24954311
I       12.13727012      53.89312500       0.02841760
I       13.94822988      56.28837500       8.90891760
I       19.16532988      56.28837500      17.73258240
I       17.35437012      53.89312500       8.85208240
I       13.55506922      53.89312500       5.10255769
I       12.53043078      56.28837500      13.98305769
I       17.74753078      56.28837500      12.65844231
I       18.77216922      53.89312500       3.77794231
I       10.76715532      53.89312500      10.91395689
I       15.31834468      56.28837500       2.03345689
I       20.53544468      56.28837500       6.84704311
I       15.98425532      53.89312500      15.72754311
I       12.13727012      53.89312500      17.78941760
I       13.94822988      56.28837500      26.66991760
I       19.16532988      56.28837500      35.49358240
I       17.35437012      53.89312500      26.61308240
I       13.55506922      53.89312500      22.86355769
I       12.53043078      56.28837500      31.74405769
I       17.74753078      56.28837500      30.41944231
I       18.77216922      53.89312500      21.53894231
I       10.76715532      53.89312500      28.67495689
I       15.31834468      56.28837500      19.79445689
I       20.53544468      56.28837500      24.60804311
I       15.98425532      53.89312500      33.48854311
I       12.13727012      53.89312500      35.55041760
I       13.94822988      56.28837500      44.43091760
I       19.16532988      56.28837500      53.25458240
I       17.35437012      53.89312500      44.37408240
I       13.55506922      53.89312500      40.62455769
I       12.53043078      56.28837500      49.50505769
I       17.74753078      56.28837500      48.18044231
I       18.77216922      53.89312500      39.29994231
I       10.76715532      53.89312500      46.43595689
I       15.31834468      56.28837500      37.55545689
I       20.53544468      56.28837500      42.36904311
I       15.98425532      53.89312500      51.24954311
I       22.57147012       1.19762500       0.02841760
I       24.38242988       3.59287500       8.90891760
I       29.59952988       3.59287500      17.73258240
I       27.78857012       1.19762500       8.85208240
I       23.98926922       1.19762500       5.10255769
I       22.96463078       3.59287500      13.98305769
I       28.18173078       3.59287500      12.65844231
I       29.20636922       1.19762500       3.77794231
I       21.20135532       1.19762500      10.91395689
I       25.75254468       3.59287500       2.03345689
I       30.96964468       3.59287500       6.84704311
I       26.41845532       1.19762500      15.72754311
I       22.57147012       1.19762500      17.78941760
I       24.38242988       3.59287500      26.66991760
I       29.59952988       3.59287500      35.49358240
I       27.78857012       1.19762500      26.61308240
I       23.98926922       1.19762500      22.86355769
I       22.96463078       3.59287500      31.74405769
I       28.18173078       3.59287500      30.41944231
I       29.20636922       1.19762500      21.53894231
I       21.20135532       1.19762500      28.67495689
I       25.75254468       3.59287500      19.79445689
I       30.96964468       3.59287500      24.60804311
I       26.41845532       1.19762500      33.48854311
I       22.57147012       1.19762500      35.55041760
I       24.38242988       3.59287500      44.43091760
I       29.59952988       3.59287500      53.25458240
I       27.78857012       1.19762500      44.37408240
I       23.98926922       1.19762500      40.62455769
I       22.96463078       3.59287500      49.50505769
I       28.18173078       3.59287500      48.18044231
I       29.20636922       1.19762500      39.29994231
I       21.20135532       1.19762500      46.43595689
I       25.75254468       3.59287500      37.55545689
I       30.96964468       3.59287500      42.36904311
I       26.41845532       1.19762500      51.24954311
I       22.57147012       5.98812500       0.02841760
I       24.38242988       8.38337500       8.90891760
I       29.59952988       8.38337500      17.73258240
I       27.78857012       5.98812500       8.85208240
I       23.98926922       5.98812500       5.10255769
I       22.96463078       8.38337500      13.98305769
I       28.18173078       8.38337500      12.65844231
I       29.20636922       5.98812500       3.77794231
I       21.20135532       5.98812500      10.91395689
I       25.75254468       8.38337500       2.03345689
I       30.96964468       8.38337500       6.84704311
I       26.41845532       5.98812500      15.72754311
I       22.57147012       5.98812500      17.78941760
I       24.38242988       8.38337500      26.66991760
I       29.59952988       8.38337500      35.49358240
I       27.78857012       5.98812500      26.61308240
I       23.98926922       5.98812500      22.86355769
I       22.96463078       8.38337500      31.74405769
I       28.18173078       8.38337500      30.41944231
I       29.20636922       5.98812500      21.53894231
I       21.20135532       5.98812500      28.67495689
I       25.75254468       8.38337500      19.79445689
I       30.96964468       8.38337500      24.60804311
I       26.41845532       5.98812500      33.48854311
I       22.57147012       5.98812500      35.55041760
I       24.38242988       8.38337500      44.43091760
I       29.59952988       8.38337500      53.25458240
I       27.78857012       5.98812500      44.37408240
I       23.98926922       5.98812500      40.62455769
I       22.96463078       8.38337500      49.50505769
I       28.18173078       8.38337500      48.18044231
I       29.20636922       5.98812500      39.29994231
I       21.20135532       5.98812500      46.43595689
I       25.75254468       8.38337500      37.55545689
I       30.96964468       8.38337500      42.36904311
I       26.41845532       5.98812500      51.24954311
I       22.57147012      10.77862500       0.02841760
I       24.38242988      13.17387500       8.90891760
I       29.59952988      13.17387500      17.73258240
I       27.78857012      10.77862500       8.85208240
I       23.98926922      10.77862500       5.10255769
I       22.96463078      13.17387500      13.98305769
I       28.18173078      13.17387500      12.65844231
I       29.20636922      10.77862500       3.77794231
I       21.20135532      10.77862500      10.91395689
I       25.75254468      13.17387500       2.03345689
I       30.96964468      13.17387500       6.84704311
I       26.41845532      10.77862500      15.72754311
I       22.57147012      10.77862500      17.78941760
I       24.38242988      13.17387500      26.66991760
I       29.59952988      13.17387500      35.49358240
I       27.78857012      10.77862500      26.61308240
I       23.98926922      10.77862500      22.86355769
I       22.96463078      13.17387500      31.74405769
I       28.18173078      13.17387500      30.41944231
I       29.20636922      10.77862500      21.53894231
I       21.20135532      10.77862500      28.67495689
I       25.75254468      13.17387500      19.79445689
I       30.96964468      13.17387500      24.60804311
I       26.41845532      10.77862500      33.48854311
I       22.57147012      10.77862500      35.55041760
I       24.38242988      13.17387500      44.43091760
I       29.59952988      13.17387500      53.25458240
I       27.78857012      10.77862500      44.37408240
I       23.98926922      10.77862500      40.62455769
I       22.96463078      13.17387500      49.50505769
I       28.18173078      13.17387500      48.18044231
I       29.20636922      10.77862500      39.29994231
I       21.20135532      10.77862500      46.43595689
I       25.75254468      13.17387500      37.55545689
I       30.96964468      13.17387500      42.36904311
I       26.41845532      10.77862500      51.24954311
I       22.57147012      15.56912500       0.02841760
I       24.38242988      17.96437500       8.90891760
I       29.59952988      17.96437500      17.73258240
I       27.78857012      15.56912500       8.85208240
I       23.98926922      15.56912500       5.10255769
I       22.96463078      17.96437500      13.98305769
I       28.18173078      17.96437500      12.65844231
I       29.20636922      15.56912500       3.77794231
I       21.20135532      15.56912500      10.91395689
I       25.75254468      17.96437500       2.03345689
I       30.96964468      17.96437500       6.84704311
I       26.41845532      15.56912500      15.72754311
I       22.57147012      15.56912500      17.78941760
I       24.38242988      17.96437500      26.66991760
I       29.59952988      17.96437500      35.49358240
I       27.78857012      15.56912500      26.61308240
I       23.98926922      15.56912500      22.86355769
I       22.96463078      17.96437500      31.74405769
I       28.18173078      17.96437500      30.41944231
I       29.20636922      15.56912500      21.53894231
I       21.20135532      15.56912500      28.67495689
I       25.75254468      17.96437500      19.79445689
I       30.96964468      17.96437500      24.60804311
I       26.41845532      15.56912500      33.48854311
I       22.57147012      15.56912500      35.55041760
I       24.38242988      17.96437500      44.43091760
I       29.59952988      17.96437500      53.25458240
I       27.78857012      15.56912500      44.37408240
I       23.98926922      15.56912500      40.62455769
I       22.96463078      17.96437500      49.50505769
I       28.18173078      17.96437500      48.18044231
I       29.20636922      15.56912500      39.29994231
I       21.20135532      15.56912500      46.43595689
I       25.75254468      17.96437500      37.55545689
I       30.96964468      17.96437500      42.36904311
I       26.41845532      15.56912500      51.24954311
I       22.57147012      20.35962500       0.02841760
I       24.38242988      22.75487500       8.90891760
I       29.59952988      22.75487500      17.73258240
I       27.78857012      20.35962500       8.85208240
I       23.98926922      20.35962500       5.10255769
I       22.96463078      22.75487500      13.98305769
I       28.18173078      22.75487500      12.65844231
I       29.20636922      20.35962500       3.77794231
I       21.20135532      20.35962500      10.91395689
I       25.75254468      22.75487500       2.03345689
I       30.96964468      22.75487500       6.84704311
I       26.41845532      20.35962500      15.72754311
I       22.57147012      20.35962500      17.78941760
I       24.38242988      22.75487500      26.66991760
I       29.59952988      22.75487500      35.49358240
I       27.78857012      20.35962500      26.61308240
I       23.98926922      20.35962500      22.86355769
I       22.96463078      22.75487500      31.74405769
I       28.18173078      22.75487500      30.41944231
I       29.20636922      20.35962500      21.53894231
I       21.20135532      20.35962500      28.67495689
I       25.75254468      22.75487500      19.79445689
I       30.96964468      22.75487500      24.60804311
I       26.41845532      20.35962500      33.48854311
I       22.57147012      20.35962500      35.55041760
I       24.38242988      22.75487500      44.43091760
I       29.59952988      22.75487500      53.25458240
I       27.78857012      20.35962500      44.37408240
I       23.98926922      20.35962500      40.62455769
I       22.96463078      22.75487500      49.50505769
I       28.18173078      22.75487500      48.18044231
I       29.20636922      20.35962500      39.29994231
I       21.20135532      20.35962500      46.43595689
I       25.75254468      22.75487500      37.55545689
I       30.96964468      22.75487500      42.36904311
I       26.41845532      20.35962500      51.24954311
I       22.57147012      25.15012500       0.02841760
I       24.38242988      27.54537500       8.90891760
I       29.59952988      27.54537500      17.73258240
I       27.78857012      25.15012500       8.85208240
I       23.98926922      25.15012500       5.10255769
I       22.96463078      27.54537500      13.98305769
I       28.18173078      27.54537500      12.65844231
I       29.20636922      25.15012500       3.77794231
I       21.20135532      25.15012500      10.91395689
I       25.75254468      27.54537500       2.03345689
I       30.96964468      27.54537500       6.84704311
I       26.41845532      25.15012500      15.72754311
I       22.57147012      25.15012500      17.78941760
I       24.38242988      27.54537500      26.66991760
I       29.59952988      27.54537500      35.49358240
I       27.78857012      25.15012500      26.61308240
I       23.98926922      25.15012500      22.86355769
I       22.96463078      27.54537500      31.74405769
I       28.18173078      27.54537500      30.41944231
I       29.20636922      25.15012500      21.53894231
I       21.20135532      25.15012500      28.67495689
I       25.75254468      27.54537500      19.79445689
I       30.96964468      27.54537500      24.60804311
I       26.41845532      25.15012500      33.48854311
I       22.57147012      25.15012500      35.55041760
I       24.38242988      27.54537500      44.43091760
I       29.59952988      27.54537500      53.25458240
I       27.78857012      25.15012500      44.37408240
I       23.98926922      25.15012500      40.62455769
I       22.96463078      27.54537500      49.50505769
I       28.18173078      27.54537500      48.18044231
I       29.20636922      25.15012500      39.29994231
I       21.20135532      25.15012500      46.43595689
I       25.75254468      27.54537500      37.55545689
I       30.96964468      27.54537500      42.36904311
I       26.41845532      25.15012500      51.24954311
I       22.57147012      29.94062500       0.02841760
I       24.38242988      32.33587500       8.90891760
I       29.59952988      32.33587500      17.73258240
I       27.78857012      29.94062500       8.85208240
I       23.98926922      29.94062500       5.10255769
I       22.96463078      32.33587500      13.98305769
I       28.18173078      32.33587500      12.65844231
I       29.20636922      29.94062500       3.77794231
I       21.20135532      29.94062500      10.91395689
I       25.75254468      32.33587500       2.03345689
I       30.96964468      32.33587500       6.84704311
I       26.41845532      29.94062500      15.72754311
I       22.57147012      29.94062500      17.78941760
I       24.38242988      32.33587500      26.66991760
I       29.59952988      32.33587500      35.49358240
I       27.78857012      29.94062500      26.61308240
I       23.98926922      29.94062500      22.86355769
I       22.96463078      32.33587500      31.74405769
I       28.18173078      32.33587500      30.41944231
I       29.20636922      29.94062500      21.53894231
I       21.20135532      29.94062500      28.67495689
I       25.75254468      32.33587500      19.79445689
I       30.96964468      32.33587500      24.60804311
I       26.41845532      29.94062500      33.48854311
I       22.57147012      29.94062500      35.55041760
I       24.38242988      32.33587500      44.43091760
I       29.59952988      32.33587500      53.25458240
I       27.78857012      29.94062500      44.37408240
I       23.98926922      29.94062500      40.62455769
I       22.96463078      32.33587500      49.50505769
I       28.18173078      32.33587500      48.18044231
I       29.20636922      29.94062500      39.29994231
I       21.20135532      29.94062500      46.43595689
I       25.75254468      32.33587500      37.55545689
I       30.96964468      32.33587500      42.36904311
I       26.41845532      29.94062500      51.24954311
I       22.57147012      34.73112500       0.02841760
I       24.38242988      37.12637500       8.90891760
I       29.59952988      37.12637500      17.73258240
I       27.78857012      34.73112500       8.85208240
I       23.98926922      34.73112500       5.10255769
I       22.96463078      37.12637500      13.98305769
I       28.18173078      37.12637500      12.65844231
I       29.20636922      34.73112500       3.77794231
I       21.20135532      34.73112500      10.91395689
I       25.75254468      37.12637500       2.03345689
I       30.96964468      37.12637500       6.84704311
I       26.41845532      34.73112500      15.72754311
I       22.57147012      34.73112500      17.78941760
I       24.38242988      37.12637500      26.66991760
I       29.59952988      37.12637500      35.49358240
I       27.78857012      34.73112500      26.61308240
I       23.98926922      34.73112500      22.86355769
I       22.96463078      37.12637500      31.74405769
I       28.18173078      37.12637500      30.41944231
I       29.20636922      34.73112500      21.53894231
I       21.20135532      34.73112500      28.67495689
I       25.75254468      37.12637500      19.79445689
I       30.96964468      37.12637500      24.60804311
I       26.41845532      34.73112500      33.48854311
I       22.57147012      34.73112500      35.55041760
I       24.38242988      37.12637500      44.43091760
I       29.59952988      37.12637500      53.25458240
I       27.78857012      34.73112500      44.37408240
I       23.98926922      34.73112500      40.62455769
I       22.96463078      37.12637500      49.50505769
I       28.18173078      37.12637500      48.18044231
I       29.20636922      34.73112500      39.29994231
I       21.20135532      34.73112500      46.43595689
I       25.75254468      37.12637500      37.55545689
I       30.96964468      37.12637500      42.36904311
I       26.41845532      34.73112500      51.24954311
I       22.57147012      39.52162500       0.02841760
I       24.38242988      41.91687500       8.90891760
I       29.59952988      41.91687500      17.73258240
I       27.78857012      39.52162500       8.85208240
I       23.98926922      39.52162500       5.10255769
I       22.96463078      41.91687500      13.98305769
I       28.18173078      41.91687500      12.65844231
I       29.20636922      39.52162500       3.77794231
I       21.20135532      39.52162500      10.91395689
I       25.75254468      41.91687500       2.03345689
I       30.96964468      41.91687500       6.84704311
I       26.41845532      39.52162500      15.72754311
I       22.57147012      39.52162500      17.78941760
I       24.38242988      41.91687500      26.66991760
I       29.59952988      41.91687500      35.49358240
I       27.78857012      39.52162500      26.61308240
I       23.98926922      39.52162500      22.86355769
I       22.96463078      41.91687500      31.74405769
I       28.18173078      41.91687500      30.41944231
I       29.20636922      39.52162500      21.53894231
I       21.20135532      39.52162500      28.67495689
I       25.75254468      41.91687500      19.79445689
I       30.96964468      41.91687500      24.60804311
I       26.41845532      39.52162500      33.48854311
I       22.57147012      39.52162500      35.55041760
I       24.38242988      41.91687500      44.43091760
I       29.59952988      41.91687500      53.25458240
I       27.78857012      39.52162500      44.37408240
I       23.98926922      39.52162500      40.62455769
I       22.96463078      41.91687500      49.50505769
I       28.18173078      41.91687500      48.18044231
I       29.20636922      39.52162500      39.29994231
I       21.20135532      39.52162500      46.43595689
I       25.75254468      41.91687500      37.55545689
I       30.96964468      41.91687500      42.36904311
I       26.41845532      39.52162500      51.24954311
I       22.57147012      44.31212500       0.02841760
I       24.38242988      46.70737500       8.90891760
I       29.59952988      46.70737500      17.73258240
I       27.78857012      44.31212500       8.85208240
I       23.98926922      44.31212500       5.10255769
I       22.96463078      46.70737500      13.98305769
I       28.18173078      46.70737500      12.65844231
I       29.20636922      44.31212500       3.77794231
I       21.20135532      44.31212500      10.91395689
I       25.75254468      46.70737500       2.03345689
I       30.96964468      46.70737500       6.84704311
I       26.41845532      44.31212500      15.72754311
I       22.57147012      44.31212500      17.78941760
I       24.38242988      46.70737500      26.66991760
I       29.59952988      46.70737500      35.49358240
I       27.78857012      44.31212500      26.61308240
I       23.98926922      44.31212500      22.86355769
I       22.96463078      46.70737500      31.74405769
I       28.18173078      46.70737500      30.41944231
I       29.20636922      44.31212500      21.53894231
I       21.20135532      44.31212500      28.67495689
I       25.75254468      46.70737500      19.79445689
I       30.96964468      46.70737500      24.60804311
I       26.41845532      44.31212500      33.48854311
I       22.57147012      44.31212500      35.55041760
I       24.38242988      46.70737500      44.43091760
I       29.59952988      46.70737500      53.25458240
I       27.78857012      44.31212500      44.37408240
I       23.98926922      44.31212500      40.62455769
I       22.96463078      46.70737500      49.50505769
I       28.18173078      46.70737500      48.18044231
I       29.20636922      44.31212500      39.29994231
I       21.20135532      44.31212500      46.43595689
I       25.75254468      46.70737500      37.55545689
I       30.96964468      46.70737500      42.36904311
I       26.41845532      44.31212500      51.24954311
I       22.57147012      49.10262500       0.02841760
I       24.38242988      51.49787500       8.90891760
I       29.59952988      51.49787500      17.73258240
I       27.78857012      49.10262500       8.85208240
I       23.98926922      49.10262500       5.10255769
I       22.96463078      51.49787500      13.98305769
I       28.18173078      51.49787500      12.65844231
I       29.20636922      49.10262500       3.77794231
I       21.20135532      49.10262500      10.91395689
I       25.75254468      51.49787500       2.03345689
I       30.96964468      51.49787500       6.84704311
I       26.41845532      49.10262500      15.72754311
I       22.57147012      49.10262500      17.78941760
I       24.38242988      51.49787500      26.66991760
I       29.59952988      51.49787500      35.49358240
I       27.78857012      49.10262500      26.61308240
I       23.98926922      49.10262500      22.86355769
I       22.96463078      51.49787500      31.74405769
I       28.18173078      51.49787500      30.41944231
I       29.20636922      49.10262500      21.53894231
I       21.20135532      49.10262500      28.67495689
I       25.75254468      51.49787500      19.79445689
I       30.96964468      51.49787500      24.60804311
I       26.41845532      49.10262500      33.48854311
I       22.57147012      49.10262500      35.55041760
I       24.38242988      51.49787500      44.43091760
I       29.59952988      51.49787500      53.25458240
I       27.78857012      49.10262500      44.37408240
I       23.98926922      49.10262500      40.62455769
I       22.96463078      51.49787500      49.50505769
I       28.18173078      51.49787500      48.18044231
I       29.20636922      49.10262500      39.29994231
I       21.20135532      49.10262500      46.43595689
I       25.75254468      51.49787500      37.55545689
I       30.96964468      51.49787500      42.36904311
I       26.41845532      49.10262500      51.24954311
I       22.57147012      53.89312500       0.02841760
I       24.38242988      56.28837500       8.90891760
I       29.59952988      56.28837500      17.73258240
I       27.78857012      53.89312500       8.85208240
I       23.98926922      53.89312500       5.10255769
I       22.96463078      56.28837500      13.98305769
I       28.18173078      56.28837500      12.65844231
I       29.20636922      53.89312500       3.77794231
I       21.20135532      53.89312500      10.91395689
I       25.75254468      56.28837500       2.03345689
I       30.96964468      56.28837500       6.84704311
I       26.41845532      53.89312500      15.72754311
I       22.57147012      53.89312500      17.78941760
I       24.38242988      56.28837500      26.66991760
I       29.59952988      56.28837500      35.49358240
I       27.78857012      53.89312500      26.61308240
I       23.98926922      53.89312500      22.86355769
I       22.96463078      56.28837500      31.74405769
I       28.18173078      56.28837500      30.41944231
I       29.20636922      53.89312500      21.53894231
I       21.20135532      53.89312500      28.67495689
I       25.75254468      56.28837500      19.79445689
I       30.96964468      56.28837500      24.60804311
I       26.41845532      53.89312500      33.48854311
I       22.57147012      53.89312500      35.55041760
I       24.38242988      56.28837500      44.43091760
I       29.59952988      56.28837500      53.25458240
I       27.78857012      53.89312500      44.37408240
I       23.98926922      53.89312500      40.62455769
I       22.96463078      56.28837500      49.50505769
I       28.18173078      56.28837500      48.18044231
I       29.20636922      53.89312500      39.29994231
I       21.20135532      53.89312500      46.43595689
I       25.75254468      56.28837500      37.55545689
I       30.96964468      56.28837500      42.36904311
I       26.41845532      53.89312500      51.24954311
