1080
Time=0.00000000 pbc="T T T" Lattice="31.33964581 -0.00000007 0.00000242 -0.00000006 28.83260446 -0.00000000 0.00000170 0.00000001 53.42540554" energy=-34490.46511078 virial="0.00410559 0.00002579 -0.00024904 0.00002579 0.01079462 0.00001326 -0.00024904 0.00001326 -0.00858361" stress="0.00056077 0.00003629 -0.00002759 0.00003629 0.00057551 0.00001362 -0.00002759 0.00001362 0.00059890" Properties=species:S:1:pos:R:3
Cs 4.34176625 1.15655661 11.89141480
Cs 0.84445641 3.55927379 2.98718117
Cs 6.06773116 3.55927387 5.77235373
Cs 9.56504042 1.15655647 14.67658780
Cs 4.34176667 1.15655647 29.69988501
Cs 0.84445735 3.55927385 20.79564929
Cs 6.06773180 3.55927373 23.58082269
Cs 9.56504103 1.15655643 32.48505828
Cs 4.34176728 1.15655633 47.50835414
Cs 0.84445772 3.55927381 38.60411958
Cs 6.06773201 3.55927373 41.38929276
Cs 9.56504181 1.15655679 50.29352686
Cs 4.34176629 5.96199077 11.89141479
Cs 0.84445656 8.36470809 2.98718106
Cs 6.06773116 8.36470786 5.77235371
Cs 9.56504046 5.96199096 14.67658751
Cs 4.34176656 5.96199086 29.69988491
Cs 0.84445715 8.36470794 20.79564944
Cs 6.06773159 8.36470802 23.58082259
Cs 9.56504112 5.96199078 32.48505820
Cs 4.34176747 5.96199074 47.50835422
Cs 0.84445761 8.36470794 38.60411973
Cs 6.06773219 8.36470765 41.38929248
Cs 9.56504157 5.96199097 50.29352686
Cs 4.34176615 10.76742486 11.89141480
Cs 0.84445654 13.17014151 2.98718114
Cs 6.06773098 13.17014146 5.77235373
Cs 9.56504073 10.76742470 14.67658770
Cs 4.34176680 10.76742497 29.69988502
Cs 0.84445711 13.17014184 20.79564907
Cs 6.06773154 13.17014161 23.58082247
Cs 9.56504099 10.76742487 32.48505807
Cs 4.34176735 10.76742484 47.50835415
Cs 0.84445762 13.17014169 38.60411983
Cs 6.06773198 13.17014182 41.38929274
Cs 9.56504178 10.76742478 50.29352670
Cs 4.34176607 15.57285877 11.89141465
Cs 0.84445640 17.97557538 2.98718125
Cs 6.06773100 17.97557524 5.77235361
Cs 9.56504053 15.57285858 14.67658768
Cs 4.34176672 15.57285855 29.69988470
Cs 0.84445739 17.97557528 20.79564950
Cs 6.06773149 17.97557536 23.58082236
Cs 9.56504090 15.57285858 32.48505799
Cs 4.34176719 15.57285840 47.50835387
Cs 0.84445767 17.97557538 38.60411972
Cs 6.06773204 17.97557540 41.38929282
Cs 9.56504168 15.57285853 50.29352688
Cs 4.34176615 20.37829220 11.89141506
Cs 0.84445638 22.78100927 2.98718137
Cs 6.06773128 22.78100923 5.77235335
Cs 9.56504061 20.37829215 14.67658753
Cs 4.34176669 20.37829224 29.69988507
Cs 0.84445715 22.78100935 20.79564926
Cs 6.06773149 22.78100926 23.58082245
Cs 9.56504100 20.37829228 32.48505787
Cs 4.34176726 20.37829215 47.50835394
Cs 0.84445773 22.78100923 38.60411991
Cs 6.06773213 22.78100928 41.38929259
Cs 9.56504154 20.37829217 50.29352652
Cs 4.34176643 25.18372636 11.89141466
Cs 0.84445656 27.58644360 2.98718124
Cs 6.06773125 27.58644342 5.77235388
Cs 9.56504035 25.18372630 14.67658758
Cs 4.34176666 25.18372648 29.69988495
Cs 0.84445715 27.58644360 20.79564945
Cs 6.06773157 27.58644370 23.58082249
Cs 9.56504101 25.18372635 32.48505817
Cs 4.34176720 25.18372643 47.50835401
Cs 0.84445756 27.58644353 38.60411960
Cs 6.06773204 27.58644363 41.38929283
Cs 9.56504184 25.18372667 50.29352658
Cs 14.78831463 1.15655647 11.89141571
Cs 11.29100508 3.55927376 2.98718200
Cs 16.51427946 3.55927378 5.77235432
Cs 20.01158884 1.15655638 14.67658848
Cs 14.78831506 1.15655645 29.69988576
Cs 11.29100593 3.55927356 20.79565026
Cs 16.51427986 3.55927360 23.58082323
Cs 20.01158930 1.15655652 32.48505878
Cs 14.78831564 1.15655672 47.50835480
Cs 11.29100635 3.55927360 38.60412021
Cs 16.51428040 3.55927354 41.38929370
Cs 20.01158988 1.15655654 50.29352782
Cs 14.78831460 5.96199076 11.89141549
Cs 11.29100517 8.36470777 2.98718220
Cs 16.51427949 8.36470795 5.77235438
Cs 20.01158895 5.96199082 14.67658864
Cs 14.78831532 5.96199082 29.69988573
Cs 11.29100599 8.36470789 20.79565022
Cs 16.51427999 8.36470775 23.58082345
Cs 20.01158941 5.96199046 32.48505904
Cs 14.78831577 5.96199089 47.50835506
Cs 11.29100606 8.36470798 38.60412053
Cs 16.51428063 8.36470788 41.38929356
Cs 20.01159017 5.96199093 50.29352768
Cs 14.78831483 10.76742464 11.89141538
Cs 11.29100504 13.17014180 2.98718204
Cs 16.51427954 13.17014178 5.77235444
Cs 20.01158889 10.76742473 14.67658862
Cs 14.78831529 10.76742475 29.69988570
Cs 11.29100589 13.17014165 20.79565013
Cs 16.51427992 13.17014179 23.58082348
Cs 20.01158946 10.76742478 32.48505886
Cs 14.78831580 10.76742488 47.50835479
Cs 11.29100636 13.17014170 38.60412059
Cs 16.51428045 13.17014162 41.38929375
Cs 20.01159016 10.76742478 50.29352744
Cs 14.78831475 15.57285848 11.89141555
Cs 11.29100529 17.97557547 2.98718188
Cs 16.51427939 17.97557526 5.77235457
Cs 20.01158875 15.57285848 14.67658854
Cs 14.78831528 15.57285834 29.69988575
Cs 11.29100582 17.97557524 20.79565000
Cs 16.51427996 17.97557545 23.58082325
Cs 20.01158942 15.57285856 32.48505910
Cs 14.78831587 15.57285850 47.50835496
Cs 11.29100605 17.97557505 38.60412061
Cs 16.51428068 17.97557555 41.38929355
Cs 20.01159017 15.57285862 50.29352748
Cs 14.78831465 20.37829215 11.89141578
Cs 11.29100520 22.78100962 2.98718219
Cs 16.51427940 22.78100933 5.77235432
Cs 20.01158886 20.37829231 14.67658838
Cs 14.78831506 20.37829247 29.69988581
Cs 11.29100588 22.78100936 20.79565032
Cs 16.51428004 22.78100941 23.58082344
Cs 20.01158938 20.37829230 32.48505888
Cs 14.78831572 20.37829248 47.50835513
Cs 11.29100634 22.78100923 38.60412041
Cs 16.51428027 22.78100929 41.38929346
Cs 20.01159020 20.37829233 50.29352763
Cs 14.78831491 25.18372651 11.89141555
Cs 11.29100530 27.58644369 2.98718213
Cs 16.51427961 27.58644365 5.77235476
Cs 20.01158886 25.18372638 14.67658874
Cs 14.78831520 25.18372638 29.69988564
Cs 11.29100584 27.58644393 20.79565016
Cs 16.51428015 27.58644374 23.58082338
Cs 20.01158931 25.18372650 32.48505872
Cs 14.78831583 25.18372650 47.50835502
Cs 11.29100633 27.58644345 38.60412050
Cs 16.51428050 27.58644334 41.38929362
Cs 20.01159007 25.18372660 50.29352773
Cs 25.23486324 1.15655655 11.89141654
Cs 21.73755334 3.55927377 2.98718315
Cs 26.96082808 3.55927379 5.77235509
Cs 30.45813745 1.15655651 14.67658925
Cs 25.23486369 1.15655661 29.69988673
Cs 21.73755419 3.55927382 20.79565119
Cs 26.96082884 3.55927375 23.58082401
Cs 30.45813818 1.15655619 32.48505979
Cs 25.23486434 1.15655652 47.50835578
Cs 21.73755448 3.55927350 38.60412151
Cs 26.96082922 3.55927362 41.38929441
Cs 30.45813878 1.15655641 50.29352833
Cs 25.23486325 5.96199074 11.89141657
Cs 21.73755366 8.36470768 2.98718287
Cs 26.96082805 8.36470805 5.77235523
Cs 30.45813734 5.96199074 14.67658926
Cs 25.23486386 5.96199067 29.69988675
Cs 21.73755413 8.36470783 20.79565101
Cs 26.96082839 8.36470770 23.58082403
Cs 30.45813829 5.96199082 32.48505959
Cs 25.23486423 5.96199086 47.50835580
Cs 21.73755460 8.36470775 38.60412165
Cs 26.96082937 8.36470786 41.38929432
Cs 30.45813867 5.96199082 50.29352830
Cs 25.23486337 10.76742472 11.89141645
Cs 21.73755361 13.17014170 2.98718334
Cs 26.96082796 13.17014157 5.77235530
Cs 30.45813750 10.76742490 14.67658963
Cs 25.23486376 10.76742468 29.69988660
Cs 21.73755452 13.17014159 20.79565106
Cs 26.96082846 13.17014168 23.58082417
Cs 30.45813813 10.76742475 32.48505965
Cs 25.23486449 10.76742500 47.50835616
Cs 21.73755501 13.17014168 38.60412145
Cs 26.96082913 13.17014160 41.38929434
Cs 30.45813859 10.76742512 50.29352835
Cs 25.23486311 15.57285844 11.89141633
Cs 21.73755353 17.97557572 2.98718288
Cs 26.96082777 17.97557534 5.77235520
Cs 30.45813765 15.57285859 14.67658935
Cs 25.23486373 15.57285829 29.69988679
Cs 21.73755423 17.97557533 20.79565108
Cs 26.96082898 17.97557559 23.58082399
Cs 30.45813800 15.57285840 32.48505952
Cs 25.23486446 15.57285839 47.50835566
Cs 21.73755484 17.97557529 38.60412137
Cs 26.96082919 17.97557544 41.38929451
Cs 30.45813887 15.57285838 50.29352810
Cs 25.23486303 20.37829227 11.89141655
Cs 21.73755347 22.78100930 2.98718286
Cs 26.96082778 22.78100954 5.77235527
Cs 30.45813746 20.37829226 14.67658926
Cs 25.23486385 20.37829235 29.69988653
Cs 21.73755439 22.78100923 20.79565094
Cs 26.96082848 22.78100942 23.58082420
Cs 30.45813815 20.37829205 32.48505980
Cs 25.23486450 20.37829235 47.50835599
Cs 21.73755455 22.78100934 38.60412148
Cs 26.96082926 22.78100958 41.38929438
Cs 30.45813890 20.37829228 50.29352825
Cs 25.23486331 25.18372651 11.89141646
Cs 21.73755343 27.58644383 2.98718264
Cs 26.96082792 27.58644352 5.77235547
Cs 30.45813741 25.18372645 14.67658961
Cs 25.23486363 25.18372647 29.69988648
Cs 21.73755434 27.58644357 20.79565095
Cs 26.96082853 27.58644363 23.58082422
Cs 30.45813809 25.18372648 32.48505961
Cs 25.23486445 25.18372647 47.50835575
Cs 21.73755480 27.58644356 38.60412146
Cs 26.96082920 27.58644360 41.38929442
Cs 30.45813879 25.18372628 50.29352831
Pb 1.66001255 1.15655642 7.74546150
Pb 3.52621061 3.55927333 16.64969587
Pb 8.74948454 3.55927401 9.91830660
Pb 6.88328640 1.15655661 1.01407337
Pb 1.66001357 1.15655614 25.55393047
Pb 3.52621113 3.55927349 34.45816542
Pb 8.74948514 3.55927327 27.72677658
Pb 6.88328740 1.15655626 18.82254119
Pb 1.66001410 1.15655653 43.36240086
Pb 3.52621164 3.55927426 52.26663403
Pb 8.74948538 3.55927376 45.53524654
Pb 6.88328798 1.15655690 36.63101143
Pb 1.66001264 5.96199052 7.74546144
Pb 3.52620979 8.36470775 16.64969566
Pb 8.74948424 8.36470762 9.91830712
Pb 6.88328669 5.96199099 1.01407322
Pb 1.66001283 5.96199083 25.55393060
Pb 3.52621069 8.36470777 34.45816555
Pb 8.74948465 8.36470805 27.72677681
Pb 6.88328717 5.96199069 18.82254110
Pb 1.66001412 5.96199068 43.36240085
Pb 3.52621179 8.36470769 52.26663484
Pb 8.74948496 8.36470827 45.53524641
Pb 6.88328799 5.96199079 36.63101150
Pb 1.66001255 10.76742467 7.74546134
Pb 3.52621038 13.17014176 16.64969566
Pb 8.74948442 13.17014162 9.91830682
Pb 6.88328693 10.76742455 1.01407387
Pb 1.66001342 10.76742503 25.55393084
Pb 3.52621115 13.17014150 34.45816609
Pb 8.74948522 13.17014165 27.72677629
Pb 6.88328754 10.76742474 18.82254082
Pb 1.66001391 10.76742470 43.36240060
Pb 3.52621152 13.17014200 52.26663432
Pb 8.74948538 13.17014129 45.53524637
Pb 6.88328810 10.76742513 36.63101183
Pb 1.66001287 15.57285899 7.74546136
Pb 3.52621042 17.97557547 16.64969589
Pb 8.74948430 17.97557533 9.91830730
Pb 6.88328672 15.57285845 1.01407371
Pb 1.66001350 15.57285791 25.55393023
Pb 3.52621125 17.97557586 34.45816637
Pb 8.74948539 17.97557577 27.72677652
Pb 6.88328730 15.57285823 18.82254106
Pb 1.66001359 15.57285879 43.36240055
Pb 3.52621137 17.97557516 52.26663399
Pb 8.74948544 17.97557568 45.53524659
Pb 6.88328810 15.57285815 36.63101180
Pb 1.66001284 20.37829225 7.74546114
Pb 3.52621026 22.78100940 16.64969603
Pb 8.74948428 22.78100970 9.91830692
Pb 6.88328684 20.37829239 1.01407358
Pb 1.66001315 20.37829247 25.55393024
Pb 3.52621102 22.78100924 34.45816627
Pb 8.74948529 22.78100940 27.72677680
Pb 6.88328757 20.37829258 18.82254125
Pb 1.66001396 20.37829231 43.36240067
Pb 3.52621110 22.78100921 52.26663430
Pb 8.74948503 22.78100934 45.53524600
Pb 6.88328805 20.37829235 36.63101161
Pb 1.66001267 25.18372653 7.74546132
Pb 3.52621054 27.58644326 16.64969565
Pb 8.74948488 27.58644376 9.91830691
Pb 6.88328707 25.18372667 1.01407378
Pb 1.66001339 25.18372687 25.55393095
Pb 3.52621076 27.58644365 34.45816616
Pb 8.74948521 27.58644377 27.72677680
Pb 6.88328747 25.18372669 18.82254124
Pb 1.66001376 25.18372682 43.36240065
Pb 3.52621151 27.58644390 52.26663447
Pb 8.74948546 27.58644364 45.53524659
Pb 6.88328786 25.18372660 36.63101235
Pb 12.10656127 1.15655680 7.74546198
Pb 13.97275865 3.55927344 16.64969658
Pb 19.19603314 3.55927339 9.91830797
Pb 17.32983518 1.15655609 1.01407434
Pb 12.10656217 1.15655667 25.55393160
Pb 13.97275946 3.55927341 34.45816716
Pb 19.19603326 3.55927360 27.72677771
Pb 17.32983597 1.15655620 18.82254181
Pb 12.10656199 1.15655644 43.36240172
Pb 13.97276050 3.55927346 52.26663492
Pb 19.19603380 3.55927347 45.53524751
Pb 17.32983704 1.15655643 36.63101269
Pb 12.10656149 5.96199084 7.74546200
Pb 13.97275891 8.36470766 16.64969638
Pb 19.19603294 8.36470780 9.91830786
Pb 17.32983521 5.96199077 1.01407485
Pb 12.10656255 5.96199033 25.55393124
Pb 13.97275915 8.36470759 34.45816685
Pb 19.19603335 8.36470793 27.72677774
Pb 17.32983572 5.96199067 18.82254232
Pb 12.10656276 5.96199092 43.36240136
Pb 13.97276019 8.36470750 52.26663535
Pb 19.19603421 8.36470796 45.53524729
Pb 17.32983647 5.96199072 36.63101259
Pb 12.10656152 10.76742456 7.74546181
Pb 13.97275928 13.17014137 16.64969670
Pb 19.19603274 13.17014154 9.91830782
Pb 17.32983519 10.76742453 1.01407463
Pb 12.10656226 10.76742445 25.55393119
Pb 13.97275933 13.17014171 34.45816699
Pb 19.19603341 13.17014165 27.72677793
Pb 17.32983610 10.76742509 18.82254232
Pb 12.10656240 10.76742487 43.36240157
Pb 13.97275997 13.17014159 52.26663452
Pb 19.19603425 13.17014163 45.53524701
Pb 17.32983616 10.76742427 36.63101239
Pb 12.10656149 15.57285880 7.74546173
Pb 13.97275931 17.97557537 16.64969639
Pb 19.19603277 17.97557571 9.91830748
Pb 17.32983528 15.57285873 1.01407453
Pb 12.10656204 15.57285871 25.55393126
Pb 13.97275932 17.97557529 34.45816696
Pb 19.19603353 17.97557537 27.72677764
Pb 17.32983586 15.57285857 18.82254232
Pb 12.10656246 15.57285838 43.36240092
Pb 13.97275991 17.97557557 52.26663507
Pb 19.19603398 17.97557536 45.53524749
Pb 17.32983620 15.57285858 36.63101216
Pb 12.10656139 20.37829194 7.74546228
Pb 13.97275881 22.78100949 16.64969676
Pb 19.19603242 22.78100919 9.91830790
Pb 17.32983529 20.37829244 1.01407447
Pb 12.10656201 20.37829218 25.55393184
Pb 13.97275894 22.78100970 34.45816712
Pb 19.19603369 22.78100937 27.72677719
Pb 17.32983594 20.37829203 18.82254235
Pb 12.10656171 20.37829252 43.36240224
Pb 13.97276032 22.78100965 52.26663534
Pb 19.19603361 22.78100916 45.53524707
Pb 17.32983615 20.37829253 36.63101251
Pb 12.10656118 25.18372644 7.74546196
Pb 13.97275858 27.58644375 16.64969678
Pb 19.19603240 27.58644339 9.91830833
Pb 17.32983525 25.18372669 1.01407463
Pb 12.10656202 25.18372647 25.55393166
Pb 13.97275900 27.58644366 34.45816685
Pb 19.19603359 27.58644352 27.72677740
Pb 17.32983587 25.18372643 18.82254254
Pb 12.10656289 25.18372629 43.36240098
Pb 13.97276009 27.58644348 52.26663489
Pb 19.19603389 27.58644413 45.53524731
Pb 17.32983608 25.18372643 36.63101224
Pb 22.55310975 1.15655615 7.74546318
Pb 24.41930686 3.55927332 16.64969715
Pb 29.64258138 3.55927334 9.91830915
Pb 27.77638360 1.15655670 1.01407552
Pb 22.55311018 1.15655664 25.55393237
Pb 24.41930792 3.55927358 34.45816762
Pb 29.64258199 3.55927386 27.72677827
Pb 27.77638430 1.15655620 18.82254269
Pb 22.55311048 1.15655654 43.36240252
Pb 24.41930827 3.55927375 52.26663614
Pb 29.64258265 3.55927333 45.53524808
Pb 27.77638419 1.15655672 36.63101317
Pb 22.55310982 5.96199052 7.74546283
Pb 24.41930750 8.36470757 16.64969735
Pb 29.64258115 8.36470816 9.91830878
Pb 27.77638344 5.96199057 1.01407603
Pb 22.55311062 5.96199034 25.55393235
Pb 24.41930812 8.36470738 34.45816764
Pb 29.64258222 8.36470777 27.72677859
Pb 27.77638454 5.96199031 18.82254248
Pb 22.55311073 5.96199050 43.36240248
Pb 24.41930906 8.36470755 52.26663633
Pb 29.64258211 8.36470778 45.53524789
Pb 27.77638493 5.96199072 36.63101268
Pb 22.55311003 10.76742509 7.74546289
Pb 24.41930765 13.17014165 16.64969733
Pb 29.64258129 13.17014177 9.91830835
Pb 27.77638348 10.76742487 1.01407571
Pb 22.55311042 10.76742487 25.55393275
Pb 24.41930749 13.17014157 34.45816799
Pb 29.64258240 13.17014150 27.72677845
Pb 27.77638460 10.76742459 18.82254317
Pb 22.55311094 10.76742457 43.36240209
Pb 24.41930860 13.17014172 52.26663566
Pb 29.64258229 13.17014156 45.53524799
Pb 27.77638479 10.76742444 36.63101312
Pb 22.55310952 15.57285837 7.74546272
Pb 24.41930777 17.97557545 16.64969771
Pb 29.64258149 17.97557542 9.91830897
Pb 27.77638354 15.57285877 1.01407536
Pb 22.55311034 15.57285857 25.55393263
Pb 24.41930840 17.97557549 34.45816784
Pb 29.64258181 17.97557571 27.72677813
Pb 27.77638420 15.57285870 18.82254319
Pb 22.55311113 15.57285848 43.36240251
Pb 24.41930878 17.97557540 52.26663633
Pb 29.64258271 17.97557527 45.53524803
Pb 27.77638486 15.57285885 36.63101330
Pb 22.55310994 20.37829269 7.74546296
Pb 24.41930724 22.78100977 16.64969782
Pb 29.64258134 22.78100922 9.91830840
Pb 27.77638349 20.37829244 1.01407523
Pb 22.55310994 20.37829251 25.55393204
Pb 24.41930787 22.78100900 34.45816790
Pb 29.64258190 22.78100950 27.72677863
Pb 27.77638414 20.37829205 18.82254309
Pb 22.55311067 20.37829224 43.36240259
Pb 24.41930851 22.78100937 52.26663552
Pb 29.64258243 22.78100945 45.53524803
Pb 27.77638523 20.37829217 36.63101325
Pb 22.55310975 25.18372648 7.74546288
Pb 24.41930709 27.58644345 16.64969727
Pb 29.64258139 27.58644376 9.91830896
Pb 27.77638368 25.18372659 1.01407540
Pb 22.55311033 25.18372623 25.55393251
Pb 24.41930764 27.58644403 34.45816771
Pb 29.64258192 27.58644353 27.72677845
Pb 27.77638465 25.18372634 18.82254297
Pb 22.55311068 25.18372633 43.36240247
Pb 24.41930851 27.58644340 52.26663604
Pb 29.64258225 27.58644313 45.53524826
Pb 27.77638517 25.18372687 36.63101360
I 1.66524347 1.15655646 53.38916526
I 3.52098080 3.55927360 8.86799263
I 8.74425537 3.55927347 17.70000964
I 6.88851664 1.15655630 8.79577563
I 3.10757720 1.15655645 5.02482533
I 2.07864601 3.55927368 13.92905945
I 7.30191987 3.55927363 12.63894336
I 8.33085170 1.15655654 3.73471008
I 0.33183057 1.15655626 10.85660459
I 4.85439253 3.55927364 1.95237183
I 10.07766679 3.55927351 6.80716322
I 5.55510506 1.15655692 15.71139763
I 1.66524254 1.15655640 17.77222685
I 3.52098159 3.55927391 26.67646233
I 8.74425569 3.55927335 35.50848027
I 6.88851704 1.15655643 26.60424516
I 3.10757732 1.15655661 22.83329480
I 2.07864655 3.55927366 31.73752986
I 7.30192089 3.55927356 30.44741286
I 8.33085143 1.15655661 21.54317722
I 0.33183126 1.15655656 28.66507436
I 4.85439265 3.55927337 19.76083938
I 10.07766697 3.55927375 24.61563292
I 5.55510603 1.15655718 33.51986750
I 1.66524254 1.15655666 35.58069763
I 3.52098164 3.55927398 44.48493180
I 8.74425638 3.55927393 53.31694824
I 6.88851718 1.15655672 44.41271472
I 3.10757827 1.15655654 40.64176443
I 2.07864689 3.55927369 49.54599863
I 7.30192126 3.55927382 48.25588220
I 8.33085230 1.15655647 39.35164793
I 0.33183120 1.15655661 46.47354395
I 4.85439329 3.55927366 37.56931032
I 10.07766800 3.55927378 42.42410275
I 5.55510616 1.15655661 51.32833582
I 1.66524348 5.96199039 53.38916529
I 3.52098099 8.36470796 8.86799260
I 8.74425573 8.36470796 17.70000989
I 6.88851657 5.96199101 8.79577567
I 3.10757735 5.96199082 5.02482551
I 2.07864616 8.36470778 13.92905951
I 7.30192012 8.36470783 12.63894255
I 8.33085138 5.96199081 3.73470982
I 0.33183065 5.96199074 10.85660487
I 4.85439234 8.36470769 1.95237177
I 10.07766656 8.36470770 6.80716331
I 5.55510493 5.96199082 15.71139722
I 1.66524226 5.96199074 17.77222695
I 3.52098175 8.36470779 26.67646241
I 8.74425615 8.36470778 35.50848033
I 6.88851669 5.96199072 26.60424497
I 3.10757727 5.96199076 22.83329468
I 2.07864696 8.36470771 31.73753036
I 7.30192086 8.36470781 30.44741264
I 8.33085168 5.96199088 21.54317781
I 0.33183103 5.96199080 28.66507443
I 4.85439248 8.36470757 19.76083960
I 10.07766674 8.36470775 24.61563235
I 5.55510591 5.96199064 33.51986780
I 1.66524314 5.96199099 35.58069731
I 3.52098122 8.36470805 44.48493195
I 8.74425668 8.36470772 53.31694854
I 6.88851775 5.96199058 44.41271478
I 3.10757842 5.96199089 40.64176425
I 2.07864704 8.36470799 49.54599801
I 7.30192154 8.36470813 48.25588226
I 8.33085224 5.96199072 39.35164778
I 0.33183140 5.96199102 46.47354451
I 4.85439326 8.36470782 37.56931046
I 10.07766749 8.36470779 42.42410287
I 5.55510621 5.96199046 51.32833588
I 1.66524303 10.76742493 53.38916562
I 3.52098104 13.17014125 8.86799266
I 8.74425538 13.17014165 17.70000984
I 6.88851619 10.76742530 8.79577567
I 3.10757742 10.76742480 5.02482491
I 2.07864616 13.17014166 13.92905974
I 7.30192024 13.17014166 12.63894295
I 8.33085120 10.76742490 3.73470935
I 0.33183064 10.76742482 10.85660512
I 4.85439154 13.17014220 1.95237187
I 10.07766655 13.17014187 6.80716347
I 5.55510562 10.76742479 15.71139731
I 1.66524244 10.76742457 17.77222688
I 3.52098097 13.17014162 26.67646221
I 8.74425582 13.17014187 35.50848022
I 6.88851698 10.76742455 26.60424502
I 3.10757729 10.76742481 22.83329463
I 2.07864671 13.17014178 31.73752968
I 7.30192082 13.17014164 30.44741280
I 8.33085189 10.76742487 21.54317750
I 0.33183116 10.76742445 28.66507472
I 4.85439233 13.17014147 19.76083969
I 10.07766717 13.17014157 24.61563290
I 5.55510603 10.76742469 33.51986788
I 1.66524280 10.76742502 35.58069750
I 3.52098223 13.17014160 44.48493226
I 8.74425678 13.17014149 53.31694850
I 6.88851782 10.76742503 44.41271508
I 3.10757804 10.76742476 40.64176482
I 2.07864708 13.17014167 49.54599839
I 7.30192131 13.17014204 48.25588250
I 8.33085177 10.76742484 39.35164745
I 0.33183184 10.76742460 46.47354435
I 4.85439290 13.17014181 37.56931001
I 10.07766724 13.17014167 42.42410282
I 5.55510614 10.76742496 51.32833548
I 1.66524370 15.57285849 53.38916538
I 3.52098043 17.97557542 8.86799261
I 8.74425572 17.97557543 17.70000983
I 6.88851649 15.57285876 8.79577531
I 3.10757696 15.57285859 5.02482561
I 2.07864603 17.97557560 13.92905948
I 7.30192027 17.97557531 12.63894270
I 8.33085126 15.57285863 3.73470950
I 0.33183071 15.57285870 10.85660481
I 4.85439195 17.97557539 1.95237230
I 10.07766645 17.97557534 6.80716360
I 5.55510534 15.57285868 15.71139749
I 1.66524232 15.57285829 17.77222689
I 3.52098162 17.97557553 26.67646251
I 8.74425604 17.97557554 35.50848023
I 6.88851669 15.57285865 26.60424514
I 3.10757698 15.57285845 22.83329505
I 2.07864633 17.97557502 31.73752960
I 7.30192074 17.97557527 30.44741295
I 8.33085174 15.57285867 21.54317715
I 0.33183136 15.57285869 28.66507478
I 4.85439231 17.97557558 19.76083978
I 10.07766720 17.97557547 24.61563275
I 5.55510601 15.57285834 33.51986765
I 1.66524229 15.57285866 35.58069757
I 3.52098174 17.97557520 44.48493214
I 8.74425630 17.97557545 53.31694850
I 6.88851720 15.57285844 44.41271468
I 3.10757810 15.57285869 40.64176436
I 2.07864697 17.97557519 49.54599818
I 7.30192128 17.97557534 48.25588236
I 8.33085172 15.57285853 39.35164740
I 0.33183160 15.57285866 46.47354451
I 4.85439301 17.97557528 37.56931034
I 10.07766789 17.97557525 42.42410248
I 5.55510660 15.57285854 51.32833544
I 1.66524365 20.37829274 53.38916521
I 3.52098080 22.78100954 8.86799263
I 8.74425585 22.78100941 17.70000963
I 6.88851652 20.37829237 8.79577531
I 3.10757728 20.37829239 5.02482531
I 2.07864601 22.78100941 13.92905951
I 7.30192012 22.78100930 12.63894260
I 8.33085131 20.37829234 3.73470964
I 0.33183072 20.37829241 10.85660519
I 4.85439201 22.78100964 1.95237141
I 10.07766636 22.78100946 6.80716351
I 5.55510522 20.37829256 15.71139708
I 1.66524251 20.37829232 17.77222704
I 3.52098140 22.78100918 26.67646233
I 8.74425633 22.78100896 35.50848029
I 6.88851702 20.37829216 26.60424506
I 3.10757705 20.37829216 22.83329502
I 2.07864685 22.78100928 31.73752973
I 7.30192079 22.78100930 30.44741268
I 8.33085170 20.37829224 21.54317732
I 0.33183141 20.37829242 28.66507492
I 4.85439230 22.78100970 19.76083988
I 10.07766697 22.78100927 24.61563295
I 5.55510571 20.37829252 33.51986772
I 1.66524273 20.37829250 35.58069733
I 3.52098157 22.78100932 44.48493215
I 8.74425679 22.78100962 53.31694809
I 6.88851779 20.37829255 44.41271507
I 3.10757812 20.37829230 40.64176467
I 2.07864729 22.78100965 49.54599845
I 7.30192125 22.78100948 48.25588255
I 8.33085216 20.37829238 39.35164774
I 0.33183152 20.37829264 46.47354432
I 4.85439331 22.78100964 37.56931006
I 10.07766756 22.78100934 42.42410264
I 5.55510639 20.37829261 51.32833557
I 1.66524336 25.18372613 53.38916521
I 3.52098058 27.58644378 8.86799272
I 8.74425522 27.58644366 17.70000978
I 6.88851644 25.18372637 8.79577536
I 3.10757718 25.18372652 5.02482525
I 2.07864623 27.58644357 13.92905978
I 7.30192021 27.58644362 12.63894329
I 8.33085110 25.18372638 3.73470961
I 0.33183064 25.18372631 10.85660512
I 4.85439220 27.58644370 1.95237188
I 10.07766675 27.58644347 6.80716356
I 5.55510487 25.18372668 15.71139749
I 1.66524209 25.18372654 17.77222690
I 3.52098082 27.58644374 26.67646198
I 8.74425608 27.58644353 35.50848026
I 6.88851678 25.18372618 26.60424512
I 3.10757740 25.18372635 22.83329451
I 2.07864650 27.58644381 31.73752983
I 7.30192081 27.58644373 30.44741300
I 8.33085186 25.18372617 21.54317763
I 0.33183109 25.18372637 28.66507457
I 4.85439280 27.58644372 19.76083967
I 10.07766716 27.58644365 24.61563245
I 5.55510579 25.18372619 33.51986785
I 1.66524275 25.18372655 35.58069741
I 3.52098174 27.58644354 44.48493208
I 8.74425649 27.58644379 53.31694828
I 6.88851735 25.18372640 44.41271483
I 3.10757803 25.18372648 40.64176441
I 2.07864692 27.58644336 49.54599822
I 7.30192127 27.58644359 48.25588245
I 8.33085187 25.18372640 39.35164745
I 0.33183142 25.18372671 46.47354432
I 4.85439327 27.58644369 37.56930999
I 10.07766795 27.58644371 42.42410280
I 5.55510608 25.18372646 51.32833545
I 12.11179205 1.15655660 53.38916630
I 13.96752916 3.55927366 8.86799346
I 19.19080417 3.55927393 17.70001062
I 17.33506504 1.15655645 8.79577656
I 13.55412605 1.15655648 5.02482596
I 12.52519486 3.55927379 13.92906057
I 17.74846858 3.55927351 12.63894378
I 18.77739974 1.15655663 3.73471073
I 10.77837902 1.15655634 10.85660577
I 15.30094087 3.55927383 1.95237298
I 20.52421513 3.55927391 6.80716449
I 16.00165357 1.15655654 15.71139812
I 12.11179070 1.15655637 17.77222782
I 13.96752960 3.55927389 26.67646291
I 19.19080478 3.55927362 35.50848105
I 17.33506571 1.15655660 26.60424618
I 13.55412583 1.15655638 22.83329557
I 12.52519539 3.55927381 31.73753056
I 17.74846934 3.55927379 30.44741355
I 18.77740020 1.15655660 21.54317870
I 10.77837960 1.15655672 28.66507534
I 15.30094087 3.55927366 19.76084032
I 20.52421603 3.55927365 24.61563384
I 16.00165462 1.15655659 33.51986868
I 12.11179170 1.15655659 35.58069799
I 13.96753032 3.55927348 44.48493300
I 19.19080527 3.55927348 53.31694910
I 17.33506610 1.15655649 44.41271590
I 13.55412691 1.15655641 40.64176509
I 12.52519553 3.55927362 49.54599900
I 17.74846965 3.55927363 48.25588324
I 18.77740051 1.15655643 39.35164853
I 10.77838017 1.15655652 46.47354497
I 15.30094152 3.55927347 37.56931089
I 20.52421595 3.55927400 42.42410361
I 16.00165445 1.15655676 51.32833719
I 12.11179203 5.96199078 53.38916608
I 13.96752939 8.36470772 8.86799363
I 19.19080415 8.36470791 17.70001070
I 17.33506498 5.96199064 8.79577629
I 13.55412583 5.96199074 5.02482616
I 12.52519496 8.36470813 13.92906090
I 17.74846856 8.36470795 12.63894406
I 18.77739962 5.96199069 3.73471041
I 10.77837906 5.96199065 10.85660558
I 15.30094081 8.36470805 1.95237273
I 20.52421531 8.36470763 6.80716407
I 16.00165385 5.96199095 15.71139820
I 12.11179099 5.96199073 17.77222779
I 13.96752955 8.36470801 26.67646290
I 19.19080439 8.36470803 35.50848131
I 17.33506532 5.96199047 26.60424582
I 13.55412583 5.96199054 22.83329562
I 12.52519580 8.36470787 31.73753133
I 17.74846959 8.36470779 30.44741388
I 18.77739999 5.96199087 21.54317821
I 10.77837989 5.96199079 28.66507542
I 15.30094118 8.36470747 19.76084021
I 20.52421540 8.36470800 24.61563365
I 16.00165405 5.96199069 33.51986891
I 12.11179146 5.96199073 35.58069834
I 13.96753057 8.36470758 44.48493300
I 19.19080511 8.36470765 53.31694925
I 17.33506576 5.96199044 44.41271572
I 13.55412656 5.96199081 40.64176571
I 12.52519570 8.36470794 49.54599905
I 17.74846958 8.36470810 48.25588348
I 18.77740047 5.96199052 39.35164850
I 10.77838048 5.96199090 46.47354493
I 15.30094176 8.36470790 37.56931071
I 20.52421583 8.36470768 42.42410336
I 16.00165465 5.96199073 51.32833680
I 12.11179201 10.76742449 53.38916641
I 13.96752927 13.17014183 8.86799348
I 19.19080393 13.17014132 17.70001082
I 17.33506530 10.76742428 8.79577647
I 13.55412565 10.76742482 5.02482626
I 12.52519468 13.17014197 13.92906044
I 17.74846838 13.17014157 12.63894378
I 18.77739945 10.76742475 3.73471021
I 10.77837924 10.76742444 10.85660562
I 15.30094043 13.17014151 1.95237304
I 20.52421467 13.17014173 6.80716415
I 16.00165385 10.76742467 15.71139841
I 12.11179107 10.76742455 17.77222783
I 13.96752960 13.17014177 26.67646323
I 19.19080441 13.17014155 35.50848139
I 17.33506570 10.76742490 26.60424614
I 13.55412593 10.76742504 22.83329536
I 12.52519526 13.17014155 31.73753094
I 17.74846938 13.17014165 30.44741364
I 18.77739993 10.76742478 21.54317805
I 10.77838007 10.76742489 28.66507572
I 15.30094109 13.17014146 19.76084047
I 20.52421537 13.17014172 24.61563355
I 16.00165458 10.76742500 33.51986858
I 12.11179179 10.76742492 35.58069820
I 13.96753028 13.17014152 44.48493279
I 19.19080507 13.17014177 53.31694922
I 17.33506587 10.76742452 44.41271569
I 13.55412659 10.76742489 40.64176568
I 12.52519564 13.17014173 49.54599927
I 17.74846965 13.17014182 48.25588344
I 18.77740083 10.76742506 39.35164876
I 10.77838011 10.76742466 46.47354471
I 15.30094156 13.17014166 37.56931128
I 20.52421588 13.17014169 42.42410343
I 16.00165482 10.76742463 51.32833681
I 12.11179195 15.57285853 53.38916642
I 13.96752899 17.97557556 8.86799344
I 19.19080380 17.97557538 17.70001131
I 17.33506446 15.57285855 8.79577639
I 13.55412564 15.57285850 5.02482632
I 12.52519501 17.97557527 13.92906084
I 17.74846857 17.97557540 12.63894402
I 18.77739963 15.57285840 3.73471032
I 10.77837941 15.57285843 10.85660567
I 15.30094022 17.97557514 1.95237307
I 20.52421489 17.97557527 6.80716436
I 16.00165379 15.57285860 15.71139830
I 12.11179056 15.57285840 17.77222801
I 13.96752961 17.97557533 26.67646305
I 19.19080441 17.97557511 35.50848133
I 17.33506533 15.57285844 26.60424595
I 13.55412584 15.57285834 22.83329560
I 12.52519557 17.97557515 31.73753115
I 17.74846951 17.97557549 30.44741384
I 18.77739983 15.57285842 21.54317818
I 10.77837995 15.57285820 28.66507591
I 15.30094106 17.97557523 19.76084049
I 20.52421564 17.97557561 24.61563347
I 16.00165449 15.57285845 33.51986839
I 12.11179143 15.57285827 35.58069816
I 13.96753051 17.97557541 44.48493290
I 19.19080515 17.97557564 53.31694935
I 17.33506633 15.57285844 44.41271597
I 13.55412655 15.57285846 40.64176568
I 12.52519555 17.97557550 49.54599908
I 17.74847008 17.97557530 48.25588302
I 18.77740048 15.57285845 39.35164901
I 10.77838033 15.57285874 46.47354534
I 15.30094164 17.97557533 37.56931069
I 20.52421588 17.97557552 42.42410358
I 16.00165499 15.57285891 51.32833659
I 12.11179215 20.37829221 53.38916623
I 13.96752925 22.78100938 8.86799368
I 19.19080414 22.78100920 17.70001043
I 17.33506502 20.37829222 8.79577640
I 13.55412566 20.37829242 5.02482593
I 12.52519462 22.78100941 13.92906050
I 17.74846855 22.78100942 12.63894401
I 18.77739953 20.37829221 3.73471017
I 10.77837944 20.37829242 10.85660568
I 15.30094048 22.78100948 1.95237319
I 20.52421514 22.78100963 6.80716422
I 16.00165364 20.37829261 15.71139822
I 12.11179084 20.37829246 17.77222788
I 13.96752967 22.78100935 26.67646308
I 19.19080462 22.78100910 35.50848147
I 17.33506582 20.37829271 26.60424628
I 13.55412585 20.37829211 22.83329557
I 12.52519523 22.78100954 31.73753086
I 17.74846903 22.78100938 30.44741370
I 18.77740002 20.37829246 21.54317789
I 10.77837971 20.37829236 28.66507479
I 15.30094115 22.78100950 19.76084032
I 20.52421558 22.78100918 24.61563357
I 16.00165447 20.37829210 33.51986871
I 12.11179149 20.37829224 35.58069833
I 13.96752996 22.78100940 44.48493279
I 19.19080508 22.78100949 53.31694894
I 17.33506614 20.37829246 44.41271597
I 13.55412686 20.37829232 40.64176465
I 12.52519551 22.78100941 49.54599897
I 17.74846944 22.78100929 48.25588333
I 18.77740055 20.37829226 39.35164849
I 10.77838009 20.37829245 46.47354504
I 15.30094162 22.78100951 37.56931107
I 20.52421613 22.78100967 42.42410360
I 16.00165468 20.37829229 51.32833662
I 12.11179207 25.18372661 53.38916612
I 13.96752971 27.58644356 8.86799372
I 19.19080364 27.58644362 17.70001086
I 17.33506515 25.18372642 8.79577628
I 13.55412577 25.18372646 5.02482594
I 12.52519475 27.58644350 13.92906014
I 17.74846844 27.58644356 12.63894387
I 18.77739946 25.18372642 3.73471073
I 10.77837913 25.18372661 10.85660579
I 15.30094049 27.58644388 1.95237263
I 20.52421533 27.58644352 6.80716424
I 16.00165375 25.18372649 15.71139843
I 12.11179113 25.18372607 17.77222761
I 13.96752966 27.58644383 26.67646299
I 19.19080448 27.58644359 35.50848155
I 17.33506509 25.18372624 26.60424565
I 13.55412608 25.18372636 22.83329496
I 12.52519525 27.58644357 31.73753106
I 17.74846932 27.58644370 30.44741378
I 18.77739989 25.18372663 21.54317823
I 10.77837944 25.18372650 28.66507562
I 15.30094088 27.58644326 19.76084058
I 20.52421532 27.58644388 24.61563378
I 16.00165412 25.18372635 33.51986902
I 12.11179181 25.18372654 35.58069824
I 13.96753031 27.58644370 44.48493304
I 19.19080489 27.58644369 53.31694916
I 17.33506570 25.18372647 44.41271563
I 13.55412652 25.18372644 40.64176547
I 12.52519571 27.58644386 49.54599936
I 17.74846972 27.58644359 48.25588339
I 18.77740046 25.18372646 39.35164890
I 10.77838008 25.18372625 46.47354525
I 15.30094153 27.58644342 37.56931133
I 20.52421636 27.58644357 42.42410355
I 16.00165436 25.18372657 51.32833678
I 22.55834039 1.15655644 53.38916708
I 24.41407801 3.55927366 8.86799450
I 29.63735289 3.55927389 17.70001146
I 27.78161361 1.15655618 8.79577732
I 24.00067425 1.15655664 5.02482681
I 22.97174311 3.55927365 13.92906149
I 28.19501719 3.55927363 12.63894470
I 29.22394825 1.15655650 3.73471112
I 21.22492761 1.15655644 10.85660661
I 25.74748927 3.55927335 1.95237343
I 30.97076424 3.55927340 6.80716524
I 26.44820188 1.15655641 15.71139918
I 22.55833936 1.15655641 17.77222878
I 24.41407830 3.55927364 26.67646398
I 29.63735312 3.55927367 35.50848199
I 27.78161388 1.15655661 26.60424686
I 24.00067446 1.15655639 22.83329620
I 22.97174369 3.55927381 31.73753171
I 28.19501779 3.55927361 30.44741433
I 29.22394867 1.15655630 21.54317918
I 21.22492843 1.15655653 28.66507648
I 25.74748935 3.55927385 19.76084174
I 30.97076434 3.55927362 24.61563446
I 26.44820274 1.15655646 33.51986958
I 22.55834003 1.15655633 35.58069910
I 24.41407873 3.55927338 44.48493355
I 29.63735388 3.55927377 53.31695007
I 27.78161436 1.15655642 44.41271643
I 24.00067496 1.15655651 40.64176589
I 22.97174422 3.55927362 49.54600027
I 28.19501828 3.55927362 48.25588399
I 29.22394938 1.15655646 39.35164952
I 21.22492816 1.15655650 46.47354583
I 25.74749024 3.55927360 37.56931164
I 30.97076449 3.55927367 42.42410411
I 26.44820293 1.15655647 51.32833782
I 22.55834049 5.96199085 53.38916691
I 24.41407785 8.36470729 8.86799459
I 29.63735276 8.36470800 17.70001137
I 27.78161338 5.96199081 8.79577712
I 24.00067430 5.96199086 5.02482709
I 22.97174330 8.36470777 13.92906126
I 28.19501712 8.36470788 12.63894475
I 29.22394804 5.96199078 3.73471111
I 21.22492779 5.96199082 10.85660648
I 25.74748903 8.36470776 1.95237355
I 30.97076382 8.36470773 6.80716492
I 26.44820227 5.96199070 15.71139919
I 22.55833900 5.96199070 17.77222886
I 24.41407814 8.36470752 26.67646395
I 29.63735272 8.36470800 35.50848233
I 27.78161355 5.96199063 26.60424688
I 24.00067457 5.96199069 22.83329627
I 22.97174374 8.36470774 31.73753170
I 28.19501771 8.36470776 30.44741440
I 29.22394855 5.96199080 21.54317875
I 21.22492836 5.96199037 28.66507630
I 25.74748946 8.36470778 19.76084136
I 30.97076425 8.36470733 24.61563409
I 26.44820260 5.96199060 33.51986969
I 22.55833973 5.96199061 35.58069908
I 24.41407911 8.36470764 44.48493360
I 29.63735418 8.36470811 53.31694984
I 27.78161456 5.96199090 44.41271657
I 24.00067513 5.96199076 40.64176631
I 22.97174371 8.36470774 49.54599945
I 28.19501808 8.36470783 48.25588405
I 29.22394928 5.96199099 39.35164979
I 21.22492830 5.96199060 46.47354568
I 25.74749029 8.36470788 37.56931163
I 30.97076475 8.36470741 42.42410453
I 26.44820335 5.96199060 51.32833745
I 22.55833996 10.76742496 53.38916693
I 24.41407775 13.17014148 8.86799457
I 29.63735256 13.17014135 17.70001169
I 27.78161374 10.76742438 8.79577738
I 24.00067406 10.76742488 5.02482721
I 22.97174321 13.17014198 13.92906118
I 28.19501698 13.17014177 12.63894482
I 29.22394777 10.76742502 3.73471079
I 21.22492813 10.76742461 10.85660690
I 25.74748899 13.17014147 1.95237371
I 30.97076358 13.17014167 6.80716522
I 26.44820236 10.76742501 15.71139884
I 22.55833926 10.76742451 17.77222902
I 24.41407820 13.17014142 26.67646384
I 29.63735337 13.17014135 35.50848206
I 27.78161387 10.76742486 26.60424664
I 24.00067440 10.76742477 22.83329632
I 22.97174349 13.17014162 31.73753170
I 28.19501809 13.17014151 30.44741419
I 29.22394821 10.76742469 21.54317869
I 21.22492854 10.76742487 28.66507608
I 25.74748929 13.17014181 19.76084152
I 30.97076363 13.17014156 24.61563442
I 26.44820274 10.76742485 33.51986944
I 22.55833989 10.76742499 35.58069926
I 24.41407863 13.17014124 44.48493381
I 29.63735368 13.17014147 53.31694991
I 27.78161482 10.76742427 44.41271667
I 24.00067501 10.76742480 40.64176644
I 22.97174397 13.17014184 49.54600041
I 28.19501824 13.17014172 48.25588376
I 29.22394938 10.76742468 39.35164964
I 21.22492886 10.76742463 46.47354618
I 25.74748964 13.17014150 37.56931190
I 30.97076459 13.17014152 42.42410458
I 26.44820345 10.76742470 51.32833751
I 22.55834031 15.57285855 53.38916705
I 24.41407806 17.97557532 8.86799450
I 29.63735220 17.97557556 17.70001170
I 27.78161333 15.57285856 8.79577717
I 24.00067406 15.57285846 5.02482705
I 22.97174318 17.97557530 13.92906138
I 28.19501701 17.97557538 12.63894474
I 29.22394827 15.57285844 3.73471092
I 21.22492768 15.57285874 10.85660660
I 25.74748865 17.97557542 1.95237375
I 30.97076349 17.97557580 6.80716473
I 26.44820255 15.57285868 15.71139874
I 22.55833899 15.57285861 17.77222879
I 24.41407857 17.97557517 26.67646386
I 29.63735296 17.97557561 35.50848215
I 27.78161356 15.57285875 26.60424637
I 24.00067451 15.57285863 22.83329649
I 22.97174361 17.97557556 31.73753157
I 28.19501803 17.97557541 30.44741440
I 29.22394870 15.57285842 21.54317906
I 21.22492800 15.57285838 28.66507634
I 25.74748978 17.97557558 19.76084102
I 30.97076383 17.97557579 24.61563437
I 26.44820288 15.57285838 33.51986967
I 22.55833971 15.57285861 35.58069926
I 24.41407883 17.97557568 44.48493352
I 29.63735379 17.97557538 53.31695019
I 27.78161458 15.57285847 44.41271635
I 24.00067506 15.57285838 40.64176637
I 22.97174396 17.97557538 49.54599962
I 28.19501819 17.97557525 48.25588381
I 29.22394900 15.57285851 39.35164927
I 21.22492884 15.57285889 46.47354587
I 25.74748999 17.97557559 37.56931184
I 30.97076466 17.97557551 42.42410452
I 26.44820315 15.57285856 51.32833785
I 22.55834033 20.37829229 53.38916723
I 24.41407748 22.78100947 8.86799427
I 29.63735255 22.78100931 17.70001167
I 27.78161372 20.37829220 8.79577729
I 24.00067429 20.37829210 5.02482688
I 22.97174291 22.78100945 13.92906115
I 28.19501688 22.78100948 12.63894477
I 29.22394822 20.37829205 3.73471137
I 21.22492752 20.37829263 10.85660710
I 25.74748900 22.78100929 1.95237365
I 30.97076379 22.78100920 6.80716492
I 26.44820222 20.37829231 15.71139914
I 22.55833906 20.37829205 17.77222890
I 24.41407828 22.78100945 26.67646404
I 29.63735276 22.78100891 35.50848222
I 27.78161404 20.37829239 26.60424702
I 24.00067427 20.37829206 22.83329658
I 22.97174346 22.78100940 31.73753156
I 28.19501803 22.78100939 30.44741440
I 29.22394856 20.37829219 21.54317904
I 21.22492813 20.37829231 28.66507636
I 25.74748966 22.78100951 19.76084114
I 30.97076423 22.78100936 24.61563426
I 26.44820278 20.37829231 33.51986961
I 22.55833992 20.37829252 35.58069909
I 24.41407883 22.78100937 44.48493389
I 29.63735395 22.78100996 53.31694980
I 27.78161448 20.37829222 44.41271649
I 24.00067521 20.37829231 40.64176585
I 22.97174404 22.78100940 49.54600030
I 28.19501814 22.78100939 48.25588416
I 29.22394899 20.37829241 39.35164924
I 21.22492861 20.37829224 46.47354608
I 25.74748989 22.78100924 37.56931222
I 30.97076477 22.78100952 42.42410417
I 26.44820326 20.37829242 51.32833778
I 22.55834050 25.18372642 53.38916708
I 24.41407774 27.58644358 8.86799424
I 29.63735204 27.58644342 17.70001164
I 27.78161354 25.18372691 8.79577725
I 24.00067400 25.18372646 5.02482719
I 22.97174302 27.58644367 13.92906154
I 28.19501742 27.58644343 12.63894457
I 29.22394815 25.18372636 3.73471147
I 21.22492748 25.18372659 10.85660687
I 25.74748923 27.58644349 1.95237379
I 30.97076411 27.58644374 6.80716525
I 26.44820220 25.18372674 15.71139940
I 22.55833923 25.18372626 17.77222843
I 24.41407833 27.58644359 26.67646397
I 29.63735309 27.58644344 35.50848203
I 27.78161354 25.18372641 26.60424677
I 24.00067448 25.18372652 22.83329654
I 22.97174367 27.58644341 31.73753162
I 28.19501778 27.58644365 30.44741441
I 29.22394855 25.18372637 21.54317898
I 21.22492787 25.18372651 28.66507570
I 25.74748920 27.58644390 19.76084150
I 30.97076403 27.58644353 24.61563448
I 26.44820289 25.18372691 33.51986954
I 22.55833937 25.18372619 35.58069948
I 24.41407902 27.58644312 44.48493400
I 29.63735369 27.58644349 53.31694988
I 27.78161465 25.18372663 44.41271673
I 24.00067525 25.18372638 40.64176621
I 22.97174396 27.58644352 49.54600012
I 28.19501837 27.58644346 48.25588399
I 29.22394908 25.18372629 39.35164940
I 21.22492851 25.18372635 46.47354613
I 25.74749007 27.58644342 37.56931157
I 30.97076498 27.58644353 42.42410434
I 26.44820287 25.18372688 51.32833765
