Cs  I Pb
 1.0000000000000000
     6.2893999999999997    0.0000000000000000    0.0000000000000000
     0.0000000000000000    6.2893999999999997    0.0000000000000000
     0.0000000000000000    0.0000000000000000    6.2893999999999997
 Cs  I   Pb
   1   3   1
Direct
  0.4999999999999999  0.4999999999999999  0.4999999999999999
  0.0000000000000000  0.0000000000000000  0.4999999999999999
  0.0000000000000000  0.4999999999999999  0.0000000000000000
  0.4999999999999999  0.0000000000000000  0.0000000000000000
  0.0000000000000000  0.0000000000000000  0.0000000000000000
