Cs I  Pb
 1.0000000000000000
    10.4342000000000006    0.0000000000000000    0.0000000000000000
     0.0000000000000000    4.7904999999999998    0.0000000000000000
     0.0000000000000000    0.0000000000000000   17.7609999999999992
 Cs  I   Pb 
   4  12   4
Cartesian
  4.3368708880000000  1.1976249999999999 11.9158549000000011
  0.8802291120000005  3.5928749999999998  3.0353549000000006
  6.0973291120000006  3.5928749999999998  5.8451450999999990
  9.5539708880000003  1.1976249999999999 14.7256450999999977
  1.7030701240000001  1.1976249999999999  0.0284176000000000
  3.5140298759999999  3.5928749999999998  8.9089176000000005
  8.7311298760000007  3.5928749999999998 17.7325823999999983
  6.9201701240000011  1.1976249999999999  8.8520824000000005
  3.1208692199999999  1.1976249999999999  5.1025576899999994
  2.0962307800000004  3.5928749999999998 13.9830576900000008
  7.3133307800000011  3.5928749999999998 12.6584423099999981
  8.3379692199999997  1.1976249999999999  3.7779423099999998
  0.3329553220000001  1.1976249999999999 10.9139568899999997
  4.8841446780000002  3.5928749999999998  2.0334568899999996
 10.1012446780000005  3.5928749999999998  6.8470431100000004
  5.5500553220000004  1.1976249999999999 15.7275431099999992
  1.6735413380000002  1.1976249999999999  7.7787851699999999
  3.5435586619999997  3.5928749999999998 16.6592851700000004
  8.7606586620000009  3.5928749999999998  9.9822148300000002
  6.8906413380000009  1.1976249999999999  1.1017148299999995
