Cs I  Pb
 1.0000000000000000
    10.4465321328776373   -0.0000000000000000    0.0000000000000000
    -0.0000000000000000    4.8054304045912311    0.0000000000000000
     0.0000000000000000    0.0000000000000000   17.8085971025072567
 Cs  I   Pb 
   4  12   4
Cartesian
  4.3602472407634378  1.2013576011478071 11.9638490339320498
  0.8630188256753766  3.6040728034434224  3.0595504826784112
  6.0862848921141941  3.6040728034434224  5.8447480685752220
  9.5835133072022529  1.2013576011478071 14.7490466198288654
  1.6837706972817905  1.2013576011478071  0.0361076498199925
  3.5394953691570268  3.6040728034434224  8.9404062010736247
  8.7627614355958379  3.6040728034434224 17.7724894526872781
  6.9070367637206029  1.2013576011478071  8.8681909014336391
  3.1260836892180870  1.2013576011478071  5.0972689020531528
  2.0971823772207294  3.6040728034434224 14.0015674533067909
  7.3204484436595409  3.6040728034434224 12.7113282004541031
  8.3493497556568954  1.2013576011478071  3.8070296492004791
  0.3503683008005967  1.2013576011478071 10.9290467956126403
  4.8728977656382204  3.6040728034434224  2.0247482443589977
 10.0961638320770373  3.6040728034434224  6.8795503068946404
  5.5736343672394097  1.2013576011478071 15.7838488581482554
  1.6785245710081871  1.2013576011478071  7.8179018726989886
  3.5447414954306300  3.6040728034434224 16.7222004239526285
  8.7680075618694318  3.6040728034434224  9.9906952298082707
  6.9017906374470019  1.2013576011478071  1.0863966785546464
